

variable      mytemp equal  1400

# -------------------- FORCE FIELDS ----------------------
pair_style buck/coul/long 10.0 10.0

read_data	NPT_relaxed_1400.data
  orthogonal box = (0.193471 0.223403 0.204127) to (77.1075 89.0368 81.3544)
  1 by 5 by 3 MPI processor grid
  reading atoms ...
  58365 atoms
  reading velocities ...
  58365 velocities

pair_coeff    * * 1e-30 1e-30 0.0
pair_coeff    1 2 1204.18 0.3165   0.0
pair_coeff    1 1 9547.96 0.21916  32.0

kspace_style    pppm 0.0001

## Define group
group oxygen type 1
35019 atoms in group oxygen
group chromium type 2
23346 atoms in group chromium


## --------------------- NVT  --------------------
compute allmsd all displace/atom

#dump          2 all custom 25000  dump/dump id type xu yu zu c_allmsd[1] c_allmsd[2] c_allmsd[3] c_allmsd[4]
#dump          1 all xyz 25000 xyz/all.xyz
#dump_modify   1 element O Cr



compute   Omsd oxygen msd com yes
compute   Crmsd chromium msd com yes
variable  OMSDX equal "c_Omsd[1]"
variable  OMSDY equal "c_Omsd[2]"
variable  OMSDZ equal "c_Omsd[3]"
variable  OMSDAll equal "c_Omsd[4]"

variable  CrMSDX equal "c_Crmsd[1]"
variable  CrMSDY equal "c_Crmsd[2]"
variable  CrMSDZ equal "c_Crmsd[3]"
variable  CrMSDAll equal "c_Crmsd[4]"

thermo          1000
thermo_style    custom step pe ke press lx ly lz temp c_Omsd[1]  c_Omsd[2]  c_Omsd[3]  c_Omsd[4]  c_Crmsd[1]  c_Crmsd[2]  c_Crmsd[3]  c_Crmsd[4]


fix          1 all print 100 "${OMSDX}   ${OMSDY}   ${OMSDZ}  ${OMSDAll}  ${CrMSDX}   ${CrMSDY}   ${CrMSDZ}  ${CrMSDAll}" file MSD1400.data screen no
fix          3 all nvt temp ${mytemp} ${mytemp} 0.01
fix          3 all nvt temp 1400 ${mytemp} 0.01
fix          3 all nvt temp 1400 1400 0.01

run      1000000
PPPM initialization ...
  G vector (1/distance) = 0.309148
  grid = 72 80 75
  stencil order = 5
  estimated absolute RMS force accuracy = 0.00177248
  estimated relative force accuracy = 0.000123092
  using double precision FFTs
  3d grid and FFT values/proc = 58144 28800
Memory usage per processor = 12.6319 Mbytes
Step PotEng KinEng Press Lx Ly Lz Temp Omsd[1] Omsd[2] Omsd[3] Omsd[4] Crmsd[1] Crmsd[2] Crmsd[3] Crmsd[4] 
       0   -1798257.5    10461.772    221.47485    76.914057    88.813394    81.150246    1386.7417            0 2.1185507e-29            0 2.1185507e-29            0            0            0            0 
    1000     -1798195    10588.118    309.41511    76.914057    88.813394    81.150246    1403.4892  0.025975128  0.027090007   0.03374602  0.086811155  0.020701268  0.021570449  0.025807155  0.068078873 
    2000   -1798232.2    10562.598     147.7631    76.914057    88.813394    81.150246    1400.1065   0.02631814  0.026891533  0.033873072  0.087082745  0.020916351    0.0214625  0.025962434  0.068341285 
    3000   -1798283.1     10543.99    -339.4881    76.914057    88.813394    81.150246    1397.6399  0.026370355  0.026806401  0.034397027  0.087573783   0.02047054   0.02108984  0.026049801  0.067610181 
    4000   -1798209.8    10585.342    287.31654    76.914057    88.813394    81.150246    1403.1212   0.02624137  0.027466375  0.035067083  0.088774828  0.020269113  0.021307798  0.026484363  0.068061274 
    5000   -1798214.4    10523.275   -175.97486    76.914057    88.813394    81.150246    1394.8941  0.026646474   0.02755398  0.034673014  0.088873468  0.020771794  0.021122699  0.026198292  0.068092785 
    6000   -1798227.2    10515.397    179.01629    76.914057    88.813394    81.150246    1393.8498   0.02714484  0.026823832  0.035033841  0.089002514  0.020695604  0.020394441  0.025927367  0.067017413 
    7000   -1798252.1    10564.247     614.1224    76.914057    88.813394    81.150246    1400.3251  0.027537457  0.026499878  0.035114924  0.089152259  0.021011378  0.020093041  0.025721183  0.066825602 
    8000   -1798250.7    10579.917    190.91022    76.914057    88.813394    81.150246    1402.4021  0.028279994  0.028531693  0.036231785  0.093043472  0.021492822  0.021514802  0.026036812  0.069044436 
    9000     -1798216    10535.824    122.60741    76.914057    88.813394    81.150246    1396.5575  0.027442516  0.027627403  0.036249701   0.09131962  0.020550842  0.020464897  0.025896065  0.066911804 
   10000   -1798241.6    10527.065    85.725223    76.914057    88.813394    81.150246    1395.3965    0.0272762  0.027482054  0.036529012  0.091287266  0.020017868  0.020536224  0.026777403  0.067331495 
   11000   -1798225.8    10575.335    33.069663    76.914057    88.813394    81.150246    1401.7948  0.028394682  0.028345974  0.036923924  0.093664579  0.021172694  0.020799676  0.026381435  0.068353805 
   12000   -1798208.5     10502.21   -32.894278    76.914057    88.813394    81.150246    1392.1019  0.027501368  0.028990953  0.036285135  0.092777456   0.02048747   0.02045365  0.025860557  0.066801677 
   13000     -1798226    10563.622    637.19198    76.914057    88.813394    81.150246    1400.2422  0.028077731  0.028829013   0.03736152  0.094268264  0.020608196  0.021159459  0.026392127  0.068159782 
   14000   -1798191.4    10609.819    410.31744    76.914057    88.813394    81.150246    1406.3658   0.02838197  0.028939418  0.037461374  0.094782762  0.020795562  0.020684177  0.026191995  0.067671733 
   15000   -1798284.2    10503.769   -400.64651    76.914057    88.813394    81.150246    1392.3085   0.02862672  0.029630445    0.0366783  0.094935465  0.020952182  0.021222159  0.025902902  0.068077243 
   16000   -1798260.2    10611.645    134.66249    76.914057    88.813394    81.150246    1406.6079  0.028281272  0.028888299   0.03777648   0.09494605  0.020578945  0.020220523  0.027416457  0.068215926 
   17000   -1798214.3    10597.739    169.87836    76.914057    88.813394    81.150246    1404.7646  0.028269413  0.028648242  0.038528604  0.095446259  0.020525913  0.020430407  0.027795607  0.068751927 
   18000     -1798254    10555.291    58.989674    76.914057    88.813394    81.150246    1399.1379  0.028805376  0.029810271  0.036895558  0.095511205  0.021343394  0.021127837  0.026258482  0.068729714 
   19000   -1798215.3    10584.618    814.23186    76.914057    88.813394    81.150246    1403.0253  0.027864028  0.029406611  0.036902117  0.094172756  0.020120803  0.021271697   0.02644278  0.067835279 
   20000   -1798226.7    10552.961    351.37713    76.914057    88.813394    81.150246    1398.8291  0.028981672  0.029858306  0.037456825  0.096296803  0.021134068   0.02109027     0.026162  0.068386339 
   21000   -1798230.6    10608.678    127.94637    76.914057    88.813394    81.150246    1406.2145   0.02923342   0.02977976  0.038333344  0.097346524  0.020806161  0.020963107  0.027015519  0.068784787 
   22000   -1798244.6     10578.44   -178.79173    76.914057    88.813394    81.150246    1402.2063  0.028903554  0.030205553  0.038480663  0.097589771  0.020470446  0.020935802  0.026991174  0.068397422 
   23000   -1798221.8    10589.456    672.35344    76.914057    88.813394    81.150246    1403.6666  0.029474584  0.030817136  0.038632485  0.098924205   0.02092329  0.020700715   0.02702306  0.068647065 
   24000     -1798229    10549.901   -37.832931    76.914057    88.813394    81.150246    1398.4234  0.029973916  0.031251415  0.039023983   0.10024931  0.020967008  0.020718339  0.027305538  0.068990885 
   25000   -1798199.7    10529.912    297.74528    76.914057    88.813394    81.150246    1395.7738  0.030412635   0.03073604  0.038650036  0.099798711  0.021478864  0.021176654  0.027195854  0.069851372 
   26000   -1798207.3    10594.058    690.25157    76.914057    88.813394    81.150246    1404.2766  0.029570207  0.030961436  0.038264809  0.098796451  0.020831594  0.021207161  0.026988239  0.069026995 
   27000   -1798336.9    10544.941   -208.74923    76.914057    88.813394    81.150246    1397.7659  0.030549537  0.031362953  0.038967455   0.10087995  0.021579783  0.020614622  0.027073128  0.069267533 
   28000   -1798234.8    10633.516     178.7834    76.914057    88.813394    81.150246    1409.5069  0.030707461  0.031370139  0.039331874   0.10140947  0.020943195  0.020872077  0.027170353  0.068985624 
   29000   -1798293.9    10535.658   -53.336914    76.914057    88.813394    81.150246    1396.5355   0.03080075  0.031213041  0.039494169   0.10150796  0.021086743  0.020395905  0.027122835  0.068605483 
   30000   -1798241.2    10564.999    110.04449    76.914057    88.813394    81.150246    1400.4247    0.0313912  0.031859414  0.040518156   0.10376877  0.021331384  0.020939738  0.027756057  0.070027179 
   31000   -1798272.9    10622.703    206.97872    76.914057    88.813394    81.150246    1408.0736  0.030923433  0.031842936  0.039557064   0.10232343  0.020756554  0.020226833  0.026991952  0.067975338 
   32000   -1798250.1    10468.819   -251.79455    76.914057    88.813394    81.150246    1387.6757  0.031128243  0.031618203  0.040783787   0.10353023  0.020997937  0.020579525  0.027380787  0.068958249 
   33000     -1798251    10542.969    129.00042    76.914057    88.813394    81.150246    1397.5046   0.03110445  0.032514803  0.041094094   0.10471335   0.02083381  0.020876149  0.027557743  0.069267702 
   34000   -1798248.5    10598.343    471.77563    76.914057    88.813394    81.150246    1404.8446  0.032063735  0.032940986  0.041451588   0.10645631  0.021035862  0.021138485  0.026722791  0.068897138 
   35000   -1798211.7    10559.556    873.18212    76.914057    88.813394    81.150246    1399.7032  0.032086134  0.032850096  0.041589931   0.10652616  0.020920436  0.020939926  0.027523306  0.069383667 
   36000   -1798253.4    10547.695   -314.08965    76.914057    88.813394    81.150246     1398.131  0.032755765  0.032583956  0.040953529   0.10629325  0.020665398  0.020210581  0.027454203  0.068330181 
   37000   -1798206.3    10574.888     170.9277    76.914057    88.813394    81.150246    1401.7355  0.033330726  0.032868508  0.042140079   0.10833931  0.021888357   0.02085642  0.027611832  0.070356608 
   38000   -1798215.2    10610.141    414.73769    76.914057    88.813394    81.150246    1406.4084  0.032653707  0.033715302   0.04355745   0.10992646  0.020354379  0.021208331  0.028216314  0.069779024 
   39000   -1798207.2    10581.476   -11.848133    76.914057    88.813394    81.150246    1402.6088  0.032464571  0.033791831  0.043312655   0.10956906  0.020639928  0.020872433  0.028076563  0.069588925 
   40000   -1798222.2    10551.661    204.20226    76.914057    88.813394    81.150246    1398.6567  0.033664279  0.033115384  0.042897961   0.10967762  0.021311224  0.020825792  0.027712412  0.069849428 
   41000     -1798237    10597.423    117.49509    76.914057    88.813394    81.150246    1404.7226  0.033653472  0.033760669  0.043143503   0.11055764  0.020900505  0.021127846  0.027865786  0.069894138 
   42000   -1798288.5    10554.336    42.146238    76.914057    88.813394    81.150246    1399.0113  0.033066243  0.033966545  0.043376983   0.11040977  0.020302439  0.021142718  0.027818629  0.069263786 
   43000   -1798251.8    10546.278    177.19737    76.914057    88.813394    81.150246    1397.9432  0.034093265  0.032703798  0.043268187   0.11006525  0.020884625  0.019915683  0.027980509  0.068780816 
   44000   -1798156.7    10532.214    312.06272    76.914057    88.813394    81.150246    1396.0789  0.033787697   0.03397803  0.044347318   0.11211304  0.020917716  0.020599533  0.027883535  0.069400785 
   45000   -1798216.9     10521.41     85.44376    76.914057    88.813394    81.150246    1394.6468  0.033711999  0.033814799  0.044336344   0.11186314  0.021078054  0.020646431  0.028277684   0.07000217 
   46000   -1798226.8    10542.177    455.55798    76.914057    88.813394    81.150246    1397.3996  0.033544521  0.034326896  0.043534033   0.11140545  0.020389589  0.021144604  0.027809714  0.069343907 
   47000   -1798230.7    10572.321    205.10595    76.914057    88.813394    81.150246    1401.3953  0.033338368  0.033400634  0.043859373   0.11059838   0.02062183  0.020213716  0.028237329  0.069072875 
   48000   -1798219.1    10597.617    209.30268    76.914057    88.813394    81.150246    1404.7484   0.03428242  0.035047815  0.044775431   0.11410567  0.021158066  0.021134926  0.028496614  0.070789606 
   49000   -1798208.4    10622.553    516.52952    76.914057    88.813394    81.150246    1408.0537  0.033643305  0.034436017  0.044859653   0.11293897  0.020914315  0.021215962  0.028679406  0.070809683 
   50000   -1798210.5    10542.813    660.90346    76.914057    88.813394    81.150246    1397.4839    0.0339631  0.033669809  0.044197229   0.11183014  0.020578081  0.020234357  0.027883448  0.068695886 
   51000   -1798223.3    10562.296      414.464    76.914057    88.813394    81.150246    1400.0665  0.033889515  0.034162123  0.044661565    0.1127132   0.02089277  0.020353304  0.028069668  0.069315743 
   52000   -1798257.2    10621.821    607.91256    76.914057    88.813394    81.150246    1407.9567  0.033652078  0.035196701   0.04468966   0.11353844  0.020439173  0.020565687  0.028179269  0.069184129 
   53000   -1798320.6    10538.283    -437.2075    76.914057    88.813394    81.150246    1396.8834  0.033891963  0.034049248   0.04396738   0.11190859  0.020443869  0.020199703  0.027325335  0.067968907 
   54000     -1798240    10551.512    354.41628    76.914057    88.813394    81.150246     1398.637  0.034287148  0.034925827   0.04555854   0.11477152  0.020745792  0.020421492  0.028760907  0.069928191 
   55000   -1798232.6    10574.276    342.73095    76.914057    88.813394    81.150246    1401.6545    0.0349215  0.034927664  0.045367313   0.11521648  0.020284447  0.020414707  0.027036289  0.067735443 
   56000   -1798166.3    10546.605    260.20623    76.914057    88.813394    81.150246    1397.9866   0.03485069  0.035455102   0.04622201    0.1165278  0.021068477  0.020683272  0.028365508  0.070117256 
   57000   -1798234.9     10529.01     201.3967    76.914057    88.813394    81.150246    1395.6543  0.035778994   0.03486432  0.044758658   0.11540197  0.020860592  0.020371319  0.027943917  0.069175828 
   58000   -1798247.9    10532.902   -324.04381    76.914057    88.813394    81.150246    1396.1702  0.036263225  0.035185377  0.045229451   0.11667805  0.020943227  0.020314604  0.027085198  0.068343028 
   59000     -1798283    10505.611   -562.12509    76.914057    88.813394    81.150246    1392.5527  0.036121838  0.035338433  0.045589987   0.11705026  0.020865324   0.02033186  0.027410757  0.068607941 
   60000   -1798237.7    10549.663    129.64537    76.914057    88.813394    81.150246    1398.3919  0.036202825  0.035462406  0.046236507   0.11790174  0.021200636   0.02053159  0.027531744   0.06926397 
   61000   -1798218.8    10614.397    439.76667    76.914057    88.813394    81.150246    1406.9726  0.036542994  0.035842944  0.047605971   0.11999191  0.020682041  0.020773614  0.027777066  0.069232721 
   62000   -1798252.9    10526.924    262.18704    76.914057    88.813394    81.150246    1395.3777  0.036640608  0.034925088  0.048407846   0.11997354  0.021008377  0.020240137  0.027739571  0.068988084 
   63000   -1798169.3    10557.693    787.50398    76.914057    88.813394    81.150246    1399.4564  0.036748043  0.036144605  0.049260454    0.1221531   0.02070691  0.020448447  0.028744957  0.069900314 
   64000   -1798216.5    10521.478    294.78573    76.914057    88.813394    81.150246    1394.6559   0.03757862  0.035255141  0.049258977   0.12209274  0.021031877  0.020332285  0.027936641  0.069300803 
   65000   -1798257.3    10533.059    16.758025    76.914057    88.813394    81.150246     1396.191  0.037250894  0.035983689  0.049641327   0.12287591  0.020735119  0.020573476  0.028339397  0.069647992 
   66000   -1798261.7    10552.638    -222.4526    76.914057    88.813394    81.150246    1398.7862  0.037060908  0.036436964  0.049845836   0.12334371  0.020428111  0.020315636  0.027782095  0.068525843 
   67000   -1798244.2    10600.322    854.41102    76.914057    88.813394    81.150246    1405.1069  0.036873367   0.03614298  0.049379074   0.12239542  0.020596263  0.020576984  0.028028296  0.069201543 
   68000   -1798223.3    10547.956    303.35961    76.914057    88.813394    81.150246    1398.1656   0.03773023  0.037472924   0.05069831   0.12590146  0.020726269  0.021116068  0.029467847  0.071310184 
   69000   -1798194.3    10531.119    335.98409    76.914057    88.813394    81.150246    1395.9339  0.037757881  0.036513043  0.049802484   0.12407341  0.020948002  0.020241173  0.028862831  0.070052006 
   70000   -1798149.6    10592.313    489.66607    76.914057    88.813394    81.150246    1404.0453  0.037769856  0.036897722  0.050447231   0.12511481  0.020801047  0.020722945  0.030521046  0.072045038 
   71000   -1798203.9    10531.651    271.71917    76.914057    88.813394    81.150246    1396.0044  0.037843466  0.037748359  0.050890432   0.12648226  0.020226384  0.020754603    0.0302785  0.071259486 
   72000   -1798218.5    10551.816    206.10818    76.914057    88.813394    81.150246    1398.6773  0.037503705  0.036901064  0.049076762   0.12348153   0.02074018  0.020600476  0.029644153  0.070984809 
   73000   -1798266.9     10546.47   -15.314306    76.914057    88.813394    81.150246    1397.9686  0.037657356  0.036989221  0.049459473   0.12410605  0.020615271  0.020502265  0.028762886  0.069880421 
   74000   -1798201.2    10516.542    243.17115    76.914057    88.813394    81.150246    1394.0016   0.03849117   0.03797917  0.049844488   0.12631483  0.021252067  0.020982662  0.028769789  0.071004517 
   75000   -1798237.9     10535.45   -114.69105    76.914057    88.813394    81.150246    1396.5079  0.037768481  0.037511929  0.051452538   0.12673295  0.020427748  0.020416952  0.029634714  0.070479414 
   76000   -1798279.8    10538.254    5.9589034    76.914057    88.813394    81.150246    1396.8796  0.037987024  0.037526243  0.050592479   0.12610575  0.021199527  0.020736281  0.029579313  0.071515121 
   77000   -1798205.4    10545.411    347.55814    76.914057    88.813394    81.150246    1397.8282    0.0374513  0.037778132  0.050848642   0.12607807  0.020304015  0.020717381  0.029836676  0.070858072 
   78000   -1798231.5    10570.489    341.21552    76.914057    88.813394    81.150246    1401.1524  0.037440258  0.037668457  0.050658855   0.12576757  0.020959122  0.020417971  0.028651907     0.070029 
   79000   -1798138.1    10534.475    741.77138    76.914057    88.813394    81.150246    1396.3786  0.038230172  0.037394746  0.051547584    0.1271725  0.021386696  0.020532698  0.028510409  0.070429803 
   80000     -1798220      10537.7    141.68333    76.914057    88.813394    81.150246    1396.8061  0.038671588  0.037339332  0.050961983    0.1269729  0.020874605   0.02055125  0.029062429  0.070488285 
   81000   -1798207.9    10539.637    365.76266    76.914057    88.813394    81.150246    1397.0629  0.038513298  0.038493825  0.050834053   0.12784118  0.021071624  0.021194821  0.028952302  0.071218746 
   82000   -1798224.6    10577.616   -79.945949    76.914057    88.813394    81.150246    1402.0971   0.03791474  0.037710411  0.052078908   0.12770406  0.020442461  0.020319649  0.029037912  0.069800022 
   83000   -1798276.9    10574.002    164.32325    76.914057    88.813394    81.150246    1401.6181  0.038623623  0.037378632  0.051102778   0.12710503  0.020989701  0.020355279  0.028989262  0.070334242 
   84000   -1798231.1    10571.346    314.35672    76.914057    88.813394    81.150246     1401.266  0.038700094  0.037716426  0.050780679    0.1271972  0.021180398  0.020644063  0.028657693  0.070482155 
   85000   -1798169.9    10590.505    532.43218    76.914057    88.813394    81.150246    1403.8057  0.039167169  0.038178624  0.051229748   0.12857554  0.020907053  0.020788581  0.029627679  0.071323313 
   86000   -1798228.8    10609.901    312.29258    76.914057    88.813394    81.150246    1406.3766  0.039224117  0.038266322  0.051519931   0.12901037  0.021026193  0.020883501   0.02843526  0.070344953 
   87000   -1798302.1    10563.809    53.592031    76.914057    88.813394    81.150246    1400.2671  0.039279491  0.038545428  0.050954697   0.12877962  0.020586758  0.020659376   0.02847308  0.069719215 
   88000   -1798240.2    10506.765    343.32943    76.914057    88.813394    81.150246    1392.7056   0.03959631  0.038848392  0.052203288   0.13064799  0.020966698  0.020640868   0.02865596  0.070263526 
   89000   -1798210.2    10493.707    471.94155    76.914057    88.813394    81.150246    1390.9747  0.038791823  0.038427348  0.051879594   0.12909877  0.020485821  0.020114977  0.029160444  0.069761243 
   90000   -1798228.9    10596.622    153.37851    76.914057    88.813394    81.150246    1404.6165  0.039521491  0.038730357  0.051716542   0.12996839  0.020964628  0.020582422  0.028500229  0.070047279 
   91000   -1798212.7    10565.107   -44.931803    76.914057    88.813394    81.150246     1400.439  0.039700409  0.039416341  0.052890766   0.13200752  0.021006115  0.021450655  0.029803679  0.072260448 
   92000   -1798250.3    10540.103   -24.708054    76.914057    88.813394    81.150246    1397.1246  0.039939936   0.03858837  0.052151983   0.13068029  0.021023377  0.020400511  0.028581067  0.070004955 
   93000   -1798225.6    10566.527    -193.5912    76.914057    88.813394    81.150246    1400.6272  0.039193887  0.038940512  0.052428255   0.13056266    0.0209977  0.020567647  0.029632459  0.071197806 
   94000   -1798214.2    10588.014    646.29965    76.914057    88.813394    81.150246    1403.4755  0.039704501  0.038707347  0.052658001   0.13106985  0.021009825  0.020506505  0.029395443  0.070911773 
   95000   -1798285.4    10561.522   -158.02705    76.914057    88.813394    81.150246    1399.9638  0.039782687  0.039616499   0.05187524   0.13127443   0.02093032   0.02054962  0.029077406  0.070557345 
   96000   -1798248.9    10603.343    221.42798    76.914057    88.813394    81.150246    1405.5074  0.039904201  0.039176284  0.051989313    0.1310698  0.021254852  0.020726074  0.029593197  0.071574124 
   97000   -1798165.4    10543.023   -121.33124    76.914057    88.813394    81.150246    1397.5117  0.040288034  0.039170303  0.052637265    0.1320956  0.021175412  0.020710696  0.029201841  0.071087948 
   98000   -1798201.9    10572.102    297.72276    76.914057    88.813394    81.150246    1401.3663  0.040407848  0.039610249  0.053191583   0.13320968  0.020964611  0.020229494  0.030332284  0.071526389 
   99000   -1798244.9    10601.545    522.12639    76.914057    88.813394    81.150246     1405.269  0.040109698  0.039519997   0.05243459   0.13206429  0.020588159  0.020263063  0.029101911  0.069953133 
  100000   -1798213.3    10560.799    370.09981    76.914057    88.813394    81.150246     1399.868  0.040576892  0.039386828   0.05241961   0.13238333   0.02036801  0.020365675  0.029447552  0.070181238 
  101000   -1798244.8    10561.304    168.17315    76.914057    88.813394    81.150246     1399.935  0.039977866  0.040152425  0.053269907    0.1334002  0.020643309  0.020599131  0.030158252  0.071400692 
  102000   -1798230.3    10566.931    260.46244    76.914057    88.813394    81.150246    1400.6809  0.041024321  0.040294347  0.053119105   0.13443777  0.020695781  0.020278669  0.028805212  0.069779662 
  103000   -1798186.1    10480.171    441.15919    76.914057    88.813394    81.150246    1389.1805   0.04158526  0.040285158  0.054933914   0.13680433  0.021906285    0.0208191  0.030086535   0.07281192 
  104000   -1798214.2      10607.9    226.97222    76.914057    88.813394    81.150246    1406.1114  0.041436801  0.040556998  0.054754505    0.1367483  0.021019152  0.020085757  0.029753571  0.070858479 
  105000   -1798165.9    10504.834    475.35335    76.914057    88.813394    81.150246    1392.4496  0.040974754  0.041309587  0.055492771   0.13777711  0.020791407  0.021248237  0.029164015  0.071203659 
  106000   -1798188.5    10625.073    751.06092    76.914057    88.813394    81.150246    1408.3878  0.040696341  0.040497337  0.055387576   0.13658125  0.020989725  0.020650905  0.029456666  0.071097295 
  107000   -1798184.8    10523.966    761.31366    76.914057    88.813394    81.150246    1394.9857  0.040949326   0.04141326  0.055328002   0.13769059   0.02044471  0.020493431  0.028898478  0.069836619 
  108000   -1798214.8    10535.402     404.1031    76.914057    88.813394    81.150246    1396.5015  0.041027626  0.041420854  0.054796776   0.13724526  0.021211989  0.020786127  0.029554448  0.071552564 
  109000   -1798289.9    10480.338   -609.61328    76.914057    88.813394    81.150246    1389.2027    0.0406502  0.041397598  0.054903548   0.13695135  0.020495869   0.02077297  0.029139716  0.070408555 
  110000     -1798225    10523.349   -51.779522    76.914057    88.813394    81.150246    1394.9038  0.041349322  0.041430697  0.055417921   0.13819794   0.02068571   0.02001637  0.029212749  0.069914829 
  111000   -1798190.6    10574.079    862.00862    76.914057    88.813394    81.150246    1401.6283  0.042056905  0.042093437  0.055298873   0.13944922  0.021179427  0.020481939  0.029323303  0.070984669 
  112000   -1798256.7    10544.779      134.127    76.914057    88.813394    81.150246    1397.7445  0.041569091  0.042309073  0.055306066   0.13918423  0.021125206  0.020679074  0.029133128  0.070937408 
  113000   -1798216.6    10601.792    439.30251    76.914057    88.813394    81.150246    1405.3017  0.040912271  0.042258582  0.056246024   0.13941688   0.02032992  0.020522825  0.029236656  0.070089402 
  114000   -1798250.8    10522.346   -362.98818    76.914057    88.813394    81.150246    1394.7709  0.041415212  0.041986504   0.05496135   0.13836307  0.020975484  0.020223653  0.029046531  0.070245668 
  115000   -1798246.6    10540.669   -35.244328    76.914057    88.813394    81.150246    1397.1997  0.041849183  0.042288507  0.056031119   0.14016881  0.021161028  0.020403688  0.029623312  0.071188029 
  116000   -1798273.7    10543.647   -289.69747    76.914057    88.813394    81.150246    1397.5944  0.041633482  0.042946985  0.056862241   0.14144271  0.020623273  0.021087593  0.029497695  0.071208561 
  117000   -1798294.7    10558.454    150.51155    76.914057    88.813394    81.150246    1399.5572  0.041772025  0.042390649  0.055778272   0.13994095  0.020926708  0.020604013  0.029218647  0.070749369 
  118000   -1798234.8    10537.211    66.043553    76.914057    88.813394    81.150246    1396.7413  0.042115268  0.041946943   0.05735661   0.14141882  0.021236787  0.020797604   0.02969552  0.071729911 
  119000   -1798229.2    10577.821      581.266    76.914057    88.813394    81.150246    1402.1243  0.042570426  0.042394138   0.05718825   0.14215281  0.021039172  0.020443075  0.029415697  0.070897943 
  120000   -1798188.4    10616.558    436.52264    76.914057    88.813394    81.150246     1407.259  0.042932796  0.042231004  0.056059687   0.14122349  0.021770334  0.020582616   0.03006689  0.072419839 
  121000   -1798234.2    10535.426    -46.31899    76.914057    88.813394    81.150246    1396.5047  0.041939695  0.042990339  0.056383299   0.14131333  0.020884913  0.021114657  0.029566644  0.071566213 
  122000     -1798295    10562.192    52.784272    76.914057    88.813394    81.150246    1400.0526  0.042307095  0.042898478  0.057560096   0.14276567  0.020724254   0.02056223  0.029933479  0.071219964 
  123000   -1798229.1    10571.048    -39.17181    76.914057    88.813394    81.150246    1401.2265  0.042379833  0.043596299  0.055823697   0.14179983  0.020967411  0.020546237  0.029738324  0.071251973 
  124000   -1798287.6    10593.332   -144.14259    76.914057    88.813394    81.150246    1404.1804  0.042497143  0.043092659  0.056467343   0.14205715  0.020783079  0.020478396  0.030382013  0.071643488 
  125000   -1798220.8    10602.453    351.36565    76.914057    88.813394    81.150246    1405.3894  0.043720146  0.044007967  0.057323383    0.1450515  0.021925833  0.020999175  0.030344559  0.073269567 
  126000   -1798234.5    10505.077    -199.9879    76.914057    88.813394    81.150246    1392.4818  0.043920155  0.043254677   0.05655279   0.14372762  0.021112098  0.020685387  0.029729737  0.071527222 
  127000     -1798216    10527.001    404.66934    76.914057    88.813394    81.150246     1395.388  0.044451708  0.044333094  0.057278179   0.14606298  0.021311809   0.02106699    0.0294087  0.071787499 
  128000   -1798258.7     10569.96    459.38728    76.914057    88.813394    81.150246    1401.0823  0.042900126  0.044307359  0.057750814    0.1449583   0.02054991  0.020877815  0.030454612  0.071882337 
  129000   -1798206.5    10591.422    4.5175404    76.914057    88.813394    81.150246    1403.9271  0.043771668  0.044314338  0.057325881   0.14541189  0.021710471  0.020610019  0.030511033  0.072831524 
  130000   -1798246.3    10510.946    147.98955    76.914057    88.813394    81.150246    1393.2598  0.043155741  0.044106845  0.057063229   0.14432581  0.020882882  0.020573166  0.030201173  0.071657221 
  131000   -1798230.8    10553.505     281.9826    76.914057    88.813394    81.150246    1398.9012  0.043400872  0.044935528  0.057778963   0.14611536  0.020854603  0.020834795  0.030215433   0.07190483 
  132000   -1798275.9    10560.704    36.364602    76.914057    88.813394    81.150246    1399.8554  0.044204669   0.04483825  0.057874993   0.14691791  0.021470364  0.020759661  0.030151117  0.072381142 
  133000   -1798205.8    10577.895    91.513611    76.914057    88.813394    81.150246    1402.1342  0.044288778  0.043608581   0.05934006   0.14723742  0.020956089  0.020233071  0.030550713  0.071739873 
  134000     -1798222    10613.598    47.149245    76.914057    88.813394    81.150246    1406.8667  0.044270465  0.044440778  0.059637316   0.14834856  0.020588708  0.020365756  0.030971895  0.071926359 
  135000   -1798190.2    10588.368    471.76834    76.914057    88.813394    81.150246    1403.5224    0.0444763  0.045933069  0.058664123   0.14907349  0.020763572  0.021036001  0.029442149  0.071241722 
  136000   -1798189.1    10570.158    205.42932    76.914057    88.813394    81.150246    1401.1085  0.044826254  0.045433468  0.059271265   0.14953099  0.020948749  0.021024508   0.02966382  0.071637077 
  137000   -1798193.7    10552.086    784.42173    76.914057    88.813394    81.150246     1398.713  0.044178507  0.044965718  0.060160695   0.14930492  0.020792776  0.020839384  0.030179247  0.071811406 
  138000   -1798257.6    10599.238    401.60046    76.914057    88.813394    81.150246    1404.9632  0.044627579  0.046031356  0.058653781   0.14931272  0.020850062  0.021257523   0.02980137  0.071908955 
  139000   -1798185.7    10526.481    245.81223    76.914057    88.813394    81.150246    1395.3191  0.045644776  0.045237224  0.059562669   0.15044467  0.021129121    0.0207863  0.029951039  0.071866459 
  140000   -1798261.6    10572.784    140.93934    76.914057    88.813394    81.150246    1401.4566  0.044728517  0.045012129  0.059599238   0.14933988  0.020748056  0.020133575  0.029376964  0.070258594 
  141000   -1798230.5    10489.987    294.99777    76.914057    88.813394    81.150246    1390.4817  0.045166645  0.045420481  0.060566565   0.15115369   0.02093256  0.020758003  0.030140039  0.071830603 
  142000   -1798156.9     10607.93    799.00025    76.914057    88.813394    81.150246    1406.1154  0.046458527   0.04573419  0.060216674   0.15240939  0.021410421  0.020892876  0.029619675  0.071922971 
  143000     -1798311    10554.834   -43.533052    76.914057    88.813394    81.150246    1399.0774  0.045582424  0.045072877  0.060390258   0.15104556   0.02046012  0.020520672  0.029934871  0.070915663 
  144000   -1798213.8    10532.448    73.175808    76.914057    88.813394    81.150246      1396.11  0.046941617  0.045085011  0.061041768    0.1530684  0.021512772  0.020779899  0.030283397  0.072576068 
  145000   -1798158.5     10601.07    646.95801    76.914057    88.813394    81.150246    1405.2061  0.046527876  0.045426509  0.059647241   0.15160163  0.021125894  0.020658623  0.030026963   0.07181148 
  146000   -1798211.4    10570.674    320.79126    76.914057    88.813394    81.150246    1401.1769  0.047938562  0.045305511  0.061702118   0.15494619  0.021009712  0.020490985  0.030215003  0.071715701 
  147000   -1798331.8    10545.155   -125.98652    76.914057    88.813394    81.150246    1397.7944  0.047720524  0.045462927  0.060581695   0.15376515  0.020332345  0.020751892  0.029068729  0.070152965 
  148000   -1798213.9    10575.902     265.7589    76.914057    88.813394    81.150246      1401.87   0.04781953  0.045766614  0.060161132   0.15374728   0.02082904  0.020544732  0.029177067  0.070550839 
  149000   -1798175.9    10605.425    588.83594    76.914057    88.813394    81.150246    1405.7834  0.047675416  0.045945188  0.060509336   0.15412994  0.020577267   0.02047903  0.029651155  0.070707452 
  150000   -1798198.5    10593.457    345.89922    76.914057    88.813394    81.150246    1404.1969  0.048209189  0.046587995  0.061427548   0.15622473  0.020903676  0.020867126  0.029701088  0.071471889 
  151000   -1798188.2    10602.749    421.82327    76.914057    88.813394    81.150246    1405.4286    0.0480125  0.046108774   0.06062095   0.15474222  0.021146881  0.020497402  0.029576054  0.071220337 
  152000   -1798266.5    10576.238   -231.33437    76.914057    88.813394    81.150246    1401.9145   0.04779963  0.046187403  0.062453127   0.15644016  0.020497804  0.020401965  0.030206517  0.071106286 
  153000   -1798243.7    10592.849    444.69364    76.914057    88.813394    81.150246    1404.1163  0.048080013  0.047517915  0.062195338   0.15779327  0.020522351  0.021116224   0.03041088  0.072049455 
  154000   -1798210.9    10525.064   -204.65433    76.914057    88.813394    81.150246    1395.1312  0.049160271  0.046871626  0.062693184   0.15872508  0.021104408  0.020616213  0.029779206  0.071499827 
  155000   -1798252.2     10505.41    128.00265    76.914057    88.813394    81.150246     1392.526  0.048176984  0.046585904   0.06232728   0.15709017   0.02064542   0.02012906  0.029843285  0.070617764 
  156000   -1798286.8    10604.181    107.09255    76.914057    88.813394    81.150246    1405.6184   0.04818126  0.046332864  0.061460945   0.15597507  0.020282378  0.020454624  0.029045062  0.069782064 
  157000   -1798269.8    10591.847    -126.5259    76.914057    88.813394    81.150246    1403.9836  0.049505984  0.047389792  0.061607064   0.15850284     0.021344  0.020127192  0.029420763  0.070891955 
  158000     -1798251     10568.27   -140.33186    76.914057    88.813394    81.150246    1400.8583  0.048656175   0.04769031  0.062292985   0.15863947  0.021359194  0.020970154   0.02967456  0.072003907 
  159000   -1798272.1    10540.654    51.711287    76.914057    88.813394    81.150246    1397.1977  0.048727201   0.04722309  0.061815889   0.15776618  0.021078564   0.02081044  0.029620587  0.071509591 
  160000     -1798210    10541.838    324.55835    76.914057    88.813394    81.150246    1397.3547  0.048647598  0.047585513  0.063431206   0.15966432  0.020621298  0.020486407  0.030253156  0.071360861 
  161000   -1798248.9    10606.678    666.92462    76.914057    88.813394    81.150246    1405.9494  0.049181386  0.047264695   0.06204612    0.1584922  0.020505039  0.020875029  0.029285449  0.070665518 
  162000     -1798286    10522.105   -265.14807    76.914057    88.813394    81.150246     1394.739  0.049109019  0.047252023  0.061650972   0.15801201  0.020336573   0.01994247  0.029391988  0.069671031 
  163000   -1798278.6    10577.894   -316.40116    76.914057    88.813394    81.150246    1402.1341  0.049238799  0.047642804  0.062601338   0.15948294  0.021197714  0.020097506  0.029471931  0.070767151 
  164000   -1798246.8    10502.874    154.32302    76.914057    88.813394    81.150246    1392.1898  0.048668104  0.048630131  0.063132477   0.16043071  0.021084312  0.021058595  0.029922628  0.072065536 
  165000   -1798217.2    10600.639    570.54983    76.914057    88.813394    81.150246    1405.1489  0.049612222  0.048604856  0.063938602   0.16215568  0.020811198  0.021079151  0.029944196  0.071834546 
  166000     -1798289    10580.481   -37.524192    76.914057    88.813394    81.150246    1402.4769   0.04969678  0.047956853   0.06361162   0.16126525  0.020296828  0.021053815   0.02966293  0.071013572 
  167000   -1798187.7    10547.299    508.04881    76.914057    88.813394    81.150246    1398.0785  0.049708107  0.048016281  0.063299074   0.16102346  0.020717375  0.020471676  0.029797514  0.070986564 
  168000   -1798261.9    10613.047    247.69744    76.914057    88.813394    81.150246    1406.7936  0.049870933  0.048314035   0.06442603     0.162611  0.020674977  0.020539199  0.030626712  0.071840887 
  169000   -1798255.5    10644.334    205.51694    76.914057    88.813394    81.150246    1410.9409  0.049006337  0.048223542  0.062719331   0.15994921  0.020937732   0.02089516  0.029775625  0.071608517 
  170000   -1798193.3    10622.506    657.44389    76.914057    88.813394    81.150246    1408.0475  0.049768985  0.048083892  0.063419538   0.16127242  0.021333625  0.021112713    0.0302626  0.072708939 
  171000   -1798214.3     10594.52   -46.932406    76.914057    88.813394    81.150246    1404.3378  0.049266105  0.048890695  0.062949658   0.16110646  0.020474023  0.020597204   0.02908952  0.070160747 
  172000   -1798223.6    10653.529    755.90422    76.914057    88.813394    81.150246    1412.1596  0.049151335  0.048380075  0.064256598   0.16178801   0.02056817  0.021130136  0.029454684  0.071152991 
  173000   -1798281.1    10575.633    47.747092    76.914057    88.813394    81.150246    1401.8343  0.049793987  0.048483281   0.06411583    0.1623931  0.021091753  0.021159212  0.029712409  0.071963373 
  174000   -1798179.4    10593.965    503.49245    76.914057    88.813394    81.150246    1404.2643  0.049656606  0.048509923  0.064576623   0.16274315  0.021069709  0.020594144  0.029815184  0.071479036 
  175000   -1798262.7    10595.526    417.98061    76.914057    88.813394    81.150246    1404.4711  0.049912243  0.049706196  0.064572117   0.16419056   0.02070697  0.021231599  0.029447209  0.071385778 
  176000   -1798212.3    10587.445    303.09568    76.914057    88.813394    81.150246    1403.4001  0.050203728  0.049113675  0.063346826   0.16266423  0.020971836  0.021539579  0.029287814  0.071799229 
  177000   -1798214.3    10564.594    429.73955    76.914057    88.813394    81.150246    1400.3711  0.051131405  0.048806912  0.063093144   0.16303146  0.021432896   0.02045545  0.029179643  0.071067989 
  178000   -1798200.2    10494.875    46.048146    76.914057    88.813394    81.150246    1391.1296   0.05042739  0.048578853  0.064192333   0.16319858  0.020643428  0.020915337  0.029312917  0.070871683 
  179000   -1798282.9    10561.963   -246.27392    76.914057    88.813394    81.150246    1400.0223  0.051101079  0.048874388  0.063914755   0.16389022  0.020527832  0.020852576  0.028508742  0.069889151 
  180000   -1798235.8    10580.839    224.15796    76.914057    88.813394    81.150246    1402.5243  0.050433488  0.049954731  0.064446345   0.16483456  0.020821367  0.020940714  0.029120276  0.070882356 
  181000   -1798247.9    10591.692    179.68178    76.914057    88.813394    81.150246     1403.963  0.050556979  0.048816943  0.065840881    0.1652148  0.020916205  0.020874948  0.030192365  0.071983517 
  182000     -1798173    10554.345    241.31796    76.914057    88.813394    81.150246    1399.0125  0.051154276  0.049708489  0.066129324   0.16699209  0.020888755  0.021447796  0.029086837  0.071423388 
  183000   -1798312.3    10590.828   -40.196862    76.914057    88.813394    81.150246    1403.8484  0.050949096    0.0495987  0.065086675   0.16563447  0.020774833  0.020877152   0.02842318  0.070075164 
  184000   -1798266.6    10592.215    167.59839    76.914057    88.813394    81.150246    1404.0323  0.050900528  0.048296937  0.065296176   0.16449364  0.020911498  0.019839408  0.029755648  0.070506555 
  185000   -1798280.3    10584.145    520.40515    76.914057    88.813394    81.150246    1402.9626  0.051148281  0.049091256  0.065066652   0.16530619  0.020314325  0.020210925  0.028991498  0.069516749 
  186000   -1798198.3    10558.554    413.97292    76.914057    88.813394    81.150246    1399.5705   0.05155667  0.049729275  0.064719848   0.16600579   0.02062438  0.021051802  0.028886785  0.070562968 
  187000   -1798246.4    10575.634    270.02115    76.914057    88.813394    81.150246    1401.8345   0.05167232  0.049969534  0.066095683   0.16773754  0.021605909  0.020850191  0.030606572  0.073062672 
  188000   -1798299.3    10602.785    294.17617    76.914057    88.813394    81.150246    1405.4334   0.05136947  0.049887349  0.066267939   0.16752476  0.020616645  0.020329818  0.029931076  0.070877539 
  189000   -1798180.4    10576.904    144.45395    76.914057    88.813394    81.150246    1402.0028  0.051458051  0.050041492  0.065344588   0.16684413   0.02116154  0.020870935  0.029514471  0.071546947 
  190000   -1798226.4    10587.295    456.39781    76.914057    88.813394    81.150246    1403.3802   0.05132373  0.050289808  0.066449756   0.16806329  0.020221769  0.020690628  0.029568345  0.070480742 
  191000   -1798221.1    10565.865    235.14026    76.914057    88.813394    81.150246    1400.5395  0.051098443  0.050409754  0.064966743   0.16647494  0.020396876  0.019981208  0.029482529  0.069860612 
  192000   -1798294.4    10525.653    68.238129    76.914057    88.813394    81.150246    1395.2093  0.052335975  0.050569946  0.065500156   0.16840608  0.021206656  0.020747979   0.02895565  0.070910285 
  193000   -1798196.8    10531.795    133.37522    76.914057    88.813394    81.150246    1396.0235  0.051455764   0.05084303  0.065251118   0.16754991  0.020683048  0.020723543  0.028821705  0.070228296 
  194000   -1798163.6    10583.685    692.29655    76.914057    88.813394    81.150246    1402.9016  0.051709423  0.050500879   0.06731686   0.16952716  0.021010952  0.020408386   0.02967337  0.071092708 
  195000   -1798166.4    10537.541     348.3239    76.914057    88.813394    81.150246     1396.785  0.052459558  0.051668112  0.067133625    0.1712613  0.021173359  0.020802276  0.029777766  0.071753402 
  196000     -1798194    10605.502    250.99314    76.914057    88.813394    81.150246    1405.7935   0.05197293  0.052686422  0.067543515   0.17220287   0.02078548  0.020996631  0.029390344  0.071172454 
  197000   -1798201.4    10515.618    225.71583    76.914057    88.813394    81.150246    1393.8792  0.051999072  0.051481999  0.066403693   0.16988476  0.020963447  0.020843218  0.028868895  0.070675559 
  198000   -1798220.5    10537.571    71.165187    76.914057    88.813394    81.150246     1396.789  0.052478505  0.051433976  0.066381776   0.17029426  0.020975652  0.020841715  0.029235843   0.07105321 
  199000   -1798289.2    10579.545    213.46037    76.914057    88.813394    81.150246    1402.3529  0.052642792  0.051021148  0.066246291   0.16991023  0.021328747  0.020586424  0.028405313  0.070320485 
  200000   -1798238.3    10566.375    275.89327    76.914057    88.813394    81.150246    1400.6071  0.052003684  0.050744365  0.067136682   0.16988473  0.020693355  0.020680881  0.030059733  0.071433969 
  201000   -1798225.6    10540.702    312.90623    76.914057    88.813394    81.150246    1397.2041  0.052392814  0.051634444  0.067638363   0.17166562  0.021256828  0.020559124  0.030172023  0.071987976 
  202000   -1798180.9    10593.844     768.8893    76.914057    88.813394    81.150246    1404.2483   0.05182302  0.050931246  0.067636994   0.17039126  0.020993311  0.020626252  0.029636279  0.071255843 
  203000   -1798250.5    10585.031     150.6705    76.914057    88.813394    81.150246    1403.0801  0.053245662  0.051761941  0.067731847   0.17273945  0.020818457  0.020889907  0.030491417  0.072199781 
  204000   -1798292.9    10561.397      254.714    76.914057    88.813394    81.150246    1399.9473  0.052882667  0.052008121  0.068757652   0.17364844   0.02072163  0.020914355  0.031324184  0.072960168 
  205000   -1798253.9    10522.878    148.65663    76.914057    88.813394    81.150246    1394.8414  0.052465084  0.052265194  0.067886371   0.17261665   0.02083509  0.020773265   0.02959735  0.071205705 
  206000   -1798291.7    10531.978   -310.37006    76.914057    88.813394    81.150246    1396.0477  0.052046326  0.051987204  0.068797344   0.17283087  0.020524719  0.020799238  0.029737543    0.0710615 
  207000   -1798221.1     10594.82    293.13462    76.914057    88.813394    81.150246    1404.3776  0.052961735  0.051999084  0.068489782    0.1734506  0.020866467  0.020462571  0.030032892  0.071361929 
  208000   -1798271.7     10620.56    136.06554    76.914057    88.813394    81.150246    1407.7895  0.053090886  0.052431015  0.068919457   0.17444136  0.021360803  0.020490968  0.029825248  0.071677019 
  209000   -1798242.1    10600.827   -5.6638605    76.914057    88.813394    81.150246    1405.1738   0.05327041  0.052114087  0.069076148   0.17446064   0.02110928    0.0200369  0.029735991  0.070882171 
  210000   -1798242.9    10634.522    289.67673    76.914057    88.813394    81.150246    1409.6402  0.053069482  0.053005043  0.070776352   0.17685088   0.02032609  0.021486887  0.029754018  0.071566994 
  211000     -1798316      10562.7   -318.89731    76.914057    88.813394    81.150246      1400.12  0.054258316  0.052677867  0.069977548   0.17691373  0.021579074  0.020979194  0.029902126  0.072460394 
  212000   -1798162.8     10578.08    786.97859    76.914057    88.813394    81.150246    1402.1587  0.053357412  0.053270658  0.069888302   0.17651637  0.020797237  0.021051897  0.029803081  0.071652215 
  213000   -1798242.2    10561.081   -150.55606    76.914057    88.813394    81.150246    1399.9054  0.053111066  0.053146724   0.07015998   0.17641777  0.020645699  0.021180669  0.030642038  0.072468406 
  214000   -1798235.6    10583.553    -219.7309    76.914057    88.813394    81.150246    1402.8841  0.054016842  0.052975658  0.070278609   0.17727111  0.021382061  0.020722137  0.030469166  0.072573363 
  215000   -1798267.9    10533.034    37.110832    76.914057    88.813394    81.150246    1396.1876  0.053840325  0.052888604  0.069088812   0.17581774  0.020875065  0.020660942  0.029785128  0.071321135 
  216000   -1798227.6    10561.631     129.2182    76.914057    88.813394    81.150246    1399.9783  0.053865658  0.054153456   0.07139686   0.17941597  0.020648972  0.021074676  0.030672961  0.072396609 
  217000     -1798240    10536.317    98.459249    76.914057    88.813394    81.150246    1396.6229  0.053579401  0.053704407  0.070584056   0.17786786  0.020410815  0.020772338   0.02997936  0.071162512 
  218000   -1798241.5    10608.698    80.988092    76.914057    88.813394    81.150246    1406.2171  0.054312424  0.053032341  0.070999395   0.17834416  0.020750186  0.019735759  0.029324034  0.069809979 
  219000   -1798243.3    10591.913    324.26349    76.914057    88.813394    81.150246    1403.9922  0.054248542  0.054128979  0.072021556   0.18039908  0.020891065  0.020943059  0.030526943  0.072361067 
  220000   -1798253.1    10554.355    264.54811    76.914057    88.813394    81.150246    1399.0139  0.054833391  0.054310688  0.071938193   0.18108227  0.020957122  0.020734514  0.029541491  0.071233128 
  221000     -1798283    10604.558   -228.80476    76.914057    88.813394    81.150246    1405.6684   0.05440317  0.053322779  0.070748343   0.17847429  0.020823868  0.020571551  0.029552622  0.070948041 
  222000   -1798312.2    10592.592   -4.0322052    76.914057    88.813394    81.150246    1404.0823  0.054289519  0.053660236  0.071632723   0.17958248  0.020676057  0.020960441  0.029907192   0.07154369 
  223000   -1798186.2    10521.936    507.84921    76.914057    88.813394    81.150246    1394.7165  0.055612986  0.053358987  0.072187032     0.181159  0.020978766  0.020504065   0.03011698   0.07159981 
  224000   -1798222.2    10578.049    203.68175    76.914057    88.813394    81.150246    1402.1546  0.055082636  0.054210988  0.072178125   0.18147175  0.020394335  0.020980659  0.030086864  0.071461857 
  225000   -1798287.7    10508.355   -448.19707    76.914057    88.813394    81.150246    1392.9163  0.055590119  0.053488216  0.073397278   0.18247561  0.020843529  0.020233488  0.030210264  0.071287281 
  226000   -1798300.6    10538.316   -117.44741    76.914057    88.813394    81.150246    1396.8878  0.054971129  0.053685546  0.071594743   0.18025142  0.020907322  0.020559485  0.030272094  0.071738901 
  227000   -1798284.3    10631.083    135.82066    76.914057    88.813394    81.150246    1409.1843  0.055047248    0.0541294  0.072626344   0.18180299  0.020786708  0.020784818  0.030542266  0.072113792 
  228000   -1798283.4    10588.346   -93.081786    76.914057    88.813394    81.150246    1403.5195  0.055095791  0.053122619  0.073320924   0.18153933  0.021400365  0.020202016  0.031062343  0.072664724 
  229000   -1798259.7    10589.835   -71.685984    76.914057    88.813394    81.150246    1403.7169  0.055420639  0.053266023  0.073357316   0.18204398  0.021359935  0.020067093  0.031258739  0.072685767 
  230000     -1798228    10582.413     10.77484    76.914057    88.813394    81.150246     1402.733  0.055724462  0.053787783  0.071332695   0.18084494  0.021944229  0.020863168  0.029648781  0.072456177 
  231000   -1798231.1    10515.318     137.3659    76.914057    88.813394    81.150246    1393.8393  0.054973646  0.054843152  0.072626709   0.18244351  0.020820922  0.021151181  0.030532612  0.072504715 
  232000   -1798222.3    10561.643    548.88186    76.914057    88.813394    81.150246    1399.9799  0.054992236  0.054083699  0.073257235   0.18233317   0.02066017  0.020963976  0.031176778  0.072800923 
  233000   -1798231.5    10531.107    281.79716    76.914057    88.813394    81.150246    1395.9322  0.055192791  0.053332665  0.072696982   0.18122244  0.021174475  0.020226843  0.030652113  0.072053431 
  234000   -1798203.5      10531.9     451.0837    76.914057    88.813394    81.150246    1396.0373  0.055850063  0.054768968  0.073797851   0.18441688  0.021331006  0.021110621  0.031097534  0.073539162 
  235000   -1798232.6    10605.217   -14.974011    76.914057    88.813394    81.150246    1405.7558  0.055156079  0.054171528  0.074351695    0.1836793  0.020778788  0.020436223  0.031771021  0.072986031 
  236000   -1798244.2     10571.14    431.36356    76.914057    88.813394    81.150246    1401.2387  0.056010596  0.053142856  0.073759618   0.18291307  0.020875083  0.020349085  0.031827865  0.073052033 
  237000   -1798260.1    10566.831   -51.672018    76.914057    88.813394    81.150246    1400.6675  0.056058854  0.053341819  0.074237956   0.18363863  0.021105808  0.020483601  0.031579812  0.073169221 
  238000     -1798246    10520.847   -59.166022    76.914057    88.813394    81.150246    1394.5722   0.05620951  0.054396201  0.073573151   0.18417886  0.020737194  0.020917035  0.031668454  0.073322682 
  239000   -1798261.5    10607.919   -7.9496188    76.914057    88.813394    81.150246    1406.1139  0.056444635   0.05423104  0.073536638   0.18421231  0.021535786  0.020513695  0.031178341  0.073227821 
  240000   -1798220.2    10536.092    277.62393    76.914057    88.813394    81.150246    1396.5931  0.057134381   0.05407872  0.074465925   0.18567903  0.021303287  0.020638822  0.032430204  0.074372313 
  241000   -1798236.3    10538.814    382.63772    76.914057    88.813394    81.150246    1396.9539  0.056241978  0.055776079  0.074423618   0.18644167  0.020718405  0.021568624  0.031020734  0.073307763 
  242000   -1798223.4    10482.135     119.3571    76.914057    88.813394    81.150246    1389.4408  0.057521675  0.054183641  0.075299446   0.18700476  0.021467206  0.020437269  0.031577232  0.073481707 
  243000   -1798214.6     10554.95    237.43231    76.914057    88.813394    81.150246    1399.0927  0.056805433   0.05426237  0.075711062   0.18677887  0.020990199  0.020459444  0.032314169  0.073763812 
  244000   -1798265.1    10579.833    217.24335    76.914057    88.813394    81.150246     1402.391  0.057339175  0.055341341  0.075769101   0.18844962    0.0208359  0.020663845  0.032030906  0.073530651 
  245000   -1798194.1    10533.221    360.89152    76.914057    88.813394    81.150246    1396.2124  0.055834751  0.054840772  0.073507836   0.18418336  0.020518443  0.021452511  0.030155948  0.072126901 
  246000   -1798260.5    10601.192   -14.332254    76.914057    88.813394    81.150246    1405.2222  0.056510472  0.054346107  0.074728602   0.18558518  0.020956413   0.02025332  0.030969209  0.072178941 
  247000   -1798270.6    10611.329    379.37324    76.914057    88.813394    81.150246    1406.5659  0.056019849  0.054480231  0.075476832   0.18597691  0.020802242  0.019768499  0.031738649   0.07230939 
  248000   -1798255.2     10537.06    351.24964    76.914057    88.813394    81.150246    1396.7214  0.057166003  0.055527994  0.075273762   0.18796776  0.021126988   0.02082444  0.032254556  0.074205984 
  249000   -1798251.1    10571.247   -179.05064    76.914057    88.813394    81.150246     1401.253    0.0578462  0.054861719  0.076155896   0.18886381  0.021468727  0.020377078   0.03146278  0.073308585 
  250000   -1798225.2    10600.247    263.98746    76.914057    88.813394    81.150246    1405.0969  0.056084512  0.055046884  0.075088025   0.18621942  0.020706282  0.020142156  0.031200625  0.072049063 
  251000   -1798259.1    10624.905    253.36002    76.914057    88.813394    81.150246    1408.3655  0.056296853  0.055346175  0.074519275    0.1861623  0.020279098  0.020812525  0.030776016   0.07186764 
  252000   -1798293.1    10523.107    8.2287842    76.914057    88.813394    81.150246    1394.8718  0.056348108   0.05535897  0.074434152   0.18614123  0.020900734  0.020619332  0.031010037  0.072530103 
  253000     -1798254    10519.566    359.72163    76.914057    88.813394    81.150246    1394.4024  0.056357127  0.055375081  0.075114131   0.18684634  0.020551248  0.020458873  0.031091316  0.072101438 
  254000   -1798165.4    10597.422    709.86839    76.914057    88.813394    81.150246    1404.7225  0.057188248  0.054971252  0.076073756   0.18823326  0.020958702  0.020424001  0.032508512  0.073891216 
  255000   -1798277.4     10586.86   -353.25178    76.914057    88.813394    81.150246    1403.3225  0.057616174   0.05542756  0.076270839   0.18931457  0.020955324  0.021212284  0.031964437  0.074132044 
  256000   -1798244.8    10519.259   -213.50588    76.914057    88.813394    81.150246    1394.3618    0.0574784  0.056329168  0.075649368   0.18945694  0.020840382  0.020928075  0.031713352  0.073481809 
  257000   -1798256.3    10561.388   -265.56371    76.914057    88.813394    81.150246    1399.9461  0.057712489  0.056639961  0.076204685   0.19055714  0.021151263  0.020761977  0.032169526  0.074082766 
  258000   -1798211.9    10620.813    781.32236    76.914057    88.813394    81.150246     1407.823  0.057696373  0.055794297  0.075869171   0.18935984  0.020680779  0.020475556  0.031327677  0.072484012 
  259000   -1798232.3    10531.153   -40.305397    76.914057    88.813394    81.150246    1395.9384  0.058304816  0.055863557  0.075968848   0.19013722   0.02156155   0.02040909  0.031773895  0.073744535 
  260000   -1798281.5    10635.689    395.52969    76.914057    88.813394    81.150246    1409.7949  0.058217017   0.05610392  0.076232152   0.19055309  0.021161473  0.020635921  0.031101156   0.07289855 
  261000   -1798241.8    10567.658    271.00072    76.914057    88.813394    81.150246    1400.7773  0.058201035  0.055918894  0.076036779   0.19015671  0.021691442  0.020571189  0.032061241  0.074323872 
  262000   -1798258.1    10632.817    491.18996    76.914057    88.813394    81.150246    1409.4143   0.05807304  0.055734085  0.075836746   0.18964387  0.020797529  0.020590195  0.031882125  0.073269849 
  263000   -1798286.9    10506.693   -12.201694    76.914057    88.813394    81.150246    1392.6961  0.058656485  0.056289176  0.075513345   0.19045901  0.020857072  0.020720689    0.0314932  0.073070961 
  264000   -1798231.8    10557.157    377.58413    76.914057    88.813394    81.150246    1399.3853  0.058976592  0.056215499  0.076258651   0.19145074  0.021259551   0.02064231  0.031531143  0.073433004 
  265000   -1798216.2    10545.354    284.13898    76.914057    88.813394    81.150246    1397.8207  0.059061069  0.056995627  0.077360123   0.19341682  0.020838675  0.020517402  0.031622123  0.072978199 
  266000   -1798220.5    10551.125    712.15348    76.914057    88.813394    81.150246    1398.5857  0.059341519  0.057519729  0.077290309   0.19415156  0.020983993  0.020853527  0.032400869  0.074238389 
  267000   -1798252.4    10608.904    73.841581    76.914057    88.813394    81.150246    1406.2445   0.05807337  0.056555932  0.077291881   0.19192118  0.020423941  0.020626633  0.032614594  0.073665168 
  268000   -1798267.8    10557.383    -248.5103    76.914057    88.813394    81.150246    1399.4152    0.0611413  0.056652979  0.077922877   0.19571716  0.022008673  0.020318345  0.031084593  0.073411611 
  269000   -1798237.7    10514.007    165.61298    76.914057    88.813394    81.150246    1393.6655  0.058454426    0.0563936   0.07716813   0.19201616  0.020372311  0.020024671  0.031646998  0.072043979 
  270000   -1798289.6    10571.164   -135.17936    76.914057    88.813394    81.150246    1401.2419   0.05950396  0.057578541  0.077309387   0.19439189  0.021071241  0.021219179  0.031519571  0.073809991 
  271000   -1798274.4    10534.267   -52.633293    76.914057    88.813394    81.150246    1396.3511  0.060238284  0.057312632   0.07690136   0.19445228  0.021354061  0.020475917  0.032284965  0.074114944 
  272000   -1798271.6    10547.875    305.73557    76.914057    88.813394    81.150246    1398.1548   0.05986368  0.057837429  0.077449219   0.19515033  0.020397882    0.0206452  0.032206876  0.073249958 
  273000   -1798243.5    10608.128    91.538453    76.914057    88.813394    81.150246    1406.1417  0.059964659  0.057941852  0.078905912   0.19681242  0.020939173  0.020867872  0.032734573  0.074541619 
  274000   -1798207.6    10544.919    437.89114    76.914057    88.813394    81.150246    1397.7631   0.06047108  0.058285305  0.078002842   0.19675923  0.021506865  0.020840327  0.032648319   0.07499551 
  275000   -1798202.6    10572.546    466.74565    76.914057    88.813394    81.150246    1401.4252  0.060765084  0.057782126  0.079126659   0.19767387  0.021331875  0.020136557  0.032133623  0.073602054 
  276000   -1798235.3    10559.017    778.09411    76.914057    88.813394    81.150246    1399.6318  0.059367039  0.057862486  0.078728023   0.19595755  0.020332086  0.020391589  0.032282095   0.07300577 
  277000   -1798151.6    10569.747    547.02561    76.914057    88.813394    81.150246    1401.0541  0.060209372  0.059471385  0.077207805   0.19688856  0.020743247   0.02189317  0.032247219  0.074883636 
  278000     -1798245     10545.81     637.7782    76.914057    88.813394    81.150246    1397.8812  0.060191133  0.058595473  0.078671771   0.19745838  0.020893433  0.021194075  0.032541006  0.074628514 
  279000   -1798191.4     10600.13    572.43196    76.914057    88.813394    81.150246    1405.0815   0.06023742  0.058511293  0.078955226   0.19770394  0.020784055  0.020768339  0.032024655  0.073577049 
  280000   -1798326.9    10498.876   -527.70416    76.914057    88.813394    81.150246    1391.6599  0.061084808  0.059007441  0.077628845   0.19772109  0.021378819  0.021075943  0.032079295  0.074534057 
  281000   -1798194.7    10591.375    615.36096    76.914057    88.813394    81.150246     1403.921  0.060350284  0.057866857  0.077836601   0.19605374  0.020393283  0.020197805  0.032218401  0.072809489 
  282000   -1798254.5    10558.748   -60.253365    76.914057    88.813394    81.150246    1399.5961  0.059856516  0.058488765  0.078652319    0.1969976  0.020620915  0.020666448  0.032391444  0.073678806 
  283000     -1798226    10540.303    185.26559    76.914057    88.813394    81.150246    1397.1511  0.060922011   0.05836472  0.078631733   0.19791846  0.020843539  0.020359308   0.03261696  0.073819807 
  284000   -1798284.9    10620.954    144.65654    76.914057    88.813394    81.150246    1407.8417   0.06101893  0.059197951  0.077911692   0.19812857  0.021355428  0.021158215  0.032271538   0.07478518 
  285000   -1798315.9    10520.627   -333.54244    76.914057    88.813394    81.150246    1394.5431  0.060459544  0.058347247  0.078302062   0.19710885  0.020701579   0.01996913  0.032088085  0.072758794 
  286000     -1798234    10577.651    249.67233    76.914057    88.813394    81.150246    1402.1018  0.060073921    0.0578492  0.078859468   0.19678259  0.020873522  0.020155213  0.031895658  0.072924392 
  287000   -1798320.2    10577.599   -392.35876    76.914057    88.813394    81.150246    1402.0949  0.061722655  0.059044785   0.08006759   0.20083503  0.021053511  0.021136208  0.031806208  0.073995927 
  288000   -1798218.2    10536.729    338.90393    76.914057    88.813394    81.150246    1396.6774  0.061179224  0.059336489  0.080002444   0.20051816  0.021155292  0.020466001  0.032971211  0.074592503 
  289000   -1798232.5    10563.788    165.16439    76.914057    88.813394    81.150246    1400.2643  0.060644027  0.058614707  0.078561187   0.19781992  0.020815116  0.020716238   0.03133352  0.072864874 
  290000   -1798241.5    10584.796    118.88405    76.914057    88.813394    81.150246    1403.0489  0.062101368  0.059060327   0.08006694   0.20122864  0.021452057  0.020984437  0.032881139  0.075317633 
  291000   -1798304.7    10562.562   -198.44419    76.914057    88.813394    81.150246    1400.1017  0.060810837  0.059054447  0.079387359   0.19925264   0.02054231  0.020699151  0.032467687  0.073709148 
  292000   -1798265.6    10500.374    73.230674    76.914057    88.813394    81.150246    1391.8585  0.060994668  0.058699971  0.080013132   0.19970777  0.020657034  0.020458747  0.033328319    0.0744441 
  293000   -1798244.4    10506.378    143.91129    76.914057    88.813394    81.150246    1392.6544  0.062161353  0.058555751  0.079478443   0.20019555  0.021211849   0.02034099  0.031829126  0.073381965 
  294000   -1798204.5    10589.326    245.53468    76.914057    88.813394    81.150246    1403.6493  0.061992393  0.058916073  0.079681273   0.20058974  0.020349961  0.020753681  0.032788169  0.073891811 
  295000   -1798168.6    10496.505      512.714    76.914057    88.813394    81.150246    1391.3457  0.061960799  0.059604637  0.080967684   0.20253312  0.020937731   0.02051422  0.032205216  0.073657167 
  296000   -1798175.9    10539.324    378.57028    76.914057    88.813394    81.150246    1397.0214  0.062084639  0.059546046   0.07945551    0.2010862  0.021159769  0.020460371  0.031846281  0.073466421 
  297000   -1798204.1    10573.526    461.87937    76.914057    88.813394    81.150246    1401.5551  0.061862339  0.059951127  0.080614251   0.20242772  0.020382097  0.020443344  0.032951902  0.073777344 
  298000   -1798265.7    10529.555    474.53877    76.914057    88.813394    81.150246    1395.7266  0.062052951  0.058935125  0.079504734   0.20049281  0.020528024   0.02013681  0.032753315  0.073418149 
  299000   -1798305.3    10610.016   -244.78523    76.914057    88.813394    81.150246    1406.3919   0.06185838  0.059423592  0.079887685   0.20116966  0.021368296  0.020544758  0.032720003  0.074633056 
  300000   -1798186.2    10574.686    595.72392    76.914057    88.813394    81.150246    1401.7088  0.062035179  0.059637725  0.080664734   0.20233764  0.021126205  0.020669019  0.032824321  0.074619546 
  301000     -1798279    10580.933   -20.626778    76.914057    88.813394    81.150246    1402.5368  0.061936145  0.059133065  0.079976055   0.20104527  0.021239775  0.020761461  0.033046547  0.075047783 
  302000   -1798207.4    10548.849    585.98835    76.914057    88.813394    81.150246     1398.284  0.062647937   0.05956931  0.081380961   0.20359821  0.020900223  0.020315737  0.033342817  0.074558776 
  303000   -1798219.3    10533.203    178.38759    76.914057    88.813394    81.150246    1396.2101  0.062651245  0.059778092  0.080019654   0.20244899  0.020859926  0.020615498  0.031810689  0.073286113 
  304000   -1798235.2    10570.581    289.19793    76.914057    88.813394    81.150246    1401.1646  0.061620339  0.059818027  0.081610014   0.20304838  0.020518483   0.02050215  0.032979935  0.074000568 
  305000   -1798258.8    10464.544   -282.87346    76.914057    88.813394    81.150246    1387.1091  0.062869726  0.059562462  0.080504569   0.20293676  0.021142663  0.020403466  0.032625023  0.074171152 
  306000   -1798237.6    10604.673    415.67138    76.914057    88.813394    81.150246    1405.6837  0.062282724  0.059684972  0.081321214   0.20328891  0.020421571  0.020218271  0.032633954  0.073273795 
  307000   -1798214.8    10605.449    454.91845    76.914057    88.813394    81.150246    1405.7865  0.062889891  0.060062528  0.081923099   0.20487552  0.020809899  0.020821465  0.033163642  0.074795006 
  308000   -1798278.8    10499.392   -298.41346    76.914057    88.813394    81.150246    1391.7284  0.063135696  0.061030137  0.080948397   0.20511423  0.020832203  0.020886761    0.0330321  0.074751064 
  309000   -1798234.2    10532.806    562.43355    76.914057    88.813394    81.150246    1396.1574  0.063167411  0.060111591  0.080971543   0.20425055  0.021086166  0.020238343  0.032864548  0.074189057 
  310000   -1798210.1    10543.389    150.61652    76.914057    88.813394    81.150246    1397.5603  0.062371745  0.059936427  0.081784067   0.20409224  0.020488004  0.020225377  0.032651947  0.073365328 
  311000   -1798187.1     10502.69    349.54769    76.914057    88.813394    81.150246    1392.1654   0.06219967  0.060366266  0.080687054   0.20325299  0.021173185  0.020897463   0.03252371  0.074594358 
  312000   -1798222.5    10603.685    48.190494    76.914057    88.813394    81.150246    1405.5527  0.062702551  0.061206433  0.082580953   0.20648994  0.021271459  0.020849213  0.033036533  0.075157205 
  313000   -1798240.5    10543.672    407.14536    76.914057    88.813394    81.150246    1397.5977  0.062306032  0.060628929  0.080995583   0.20393054  0.020433276  0.020552425  0.032847512  0.073833213 
  314000   -1798238.3    10533.289   -59.962268    76.914057    88.813394    81.150246    1396.2214  0.062786465  0.060592566  0.082243653   0.20562268  0.020781764  0.020438673  0.032388678  0.073609115 
  315000   -1798271.7    10489.339   -378.55622    76.914057    88.813394    81.150246    1390.3958  0.063269804  0.061552079  0.082370869   0.20719275  0.021286039  0.021235933  0.032477448   0.07499942 
  316000   -1798228.8    10560.112    342.92377    76.914057    88.813394    81.150246     1399.777  0.062987772  0.060868451  0.081122387   0.20497861  0.021049418  0.020653849  0.032361626  0.074064893 
  317000   -1798259.6    10545.117   -44.332988    76.914057    88.813394    81.150246    1397.7893  0.064560315  0.060525505  0.081886232   0.20697205   0.02115549  0.020800924  0.033832316   0.07578873 
  318000   -1798318.1    10527.535   -585.76746    76.914057    88.813394    81.150246    1395.4588  0.063632347  0.061123242   0.08119657   0.20595216  0.020818184  0.020653685  0.032967392  0.074439261 
  319000     -1798216     10539.21    287.14367    76.914057    88.813394    81.150246    1397.0063  0.063540299  0.061756556  0.081918738   0.20721559  0.020743599  0.020875899  0.032770832   0.07439033 
  320000   -1798224.7    10509.105    664.17276    76.914057    88.813394    81.150246    1393.0158  0.063654625     0.061652  0.083243969   0.20855059  0.021042854  0.020956713  0.032956127  0.074955694 
  321000   -1798293.7    10618.998    120.91611    76.914057    88.813394    81.150246    1407.5825  0.063013777  0.060630183  0.082358411   0.20600237  0.020995987  0.020121064  0.033944957  0.075062008 
  322000   -1798273.4    10626.437    262.54869    76.914057    88.813394    81.150246    1408.5685  0.063719955  0.061308052  0.082355065   0.20738307  0.020426868  0.020864315  0.032362048  0.073653231 
  323000   -1798237.4    10539.379    308.43601    76.914057    88.813394    81.150246    1397.0287  0.064577737  0.061648801  0.082887584   0.20911412  0.021657475  0.020838205  0.031961962  0.074457641 
  324000     -1798256    10590.242    120.71651    76.914057    88.813394    81.150246    1403.7708    0.0639527  0.061500809  0.082873886    0.2083274  0.020997449  0.020438227  0.032045305  0.073480981 
  325000   -1798233.1    10525.902    546.25225    76.914057    88.813394    81.150246    1395.2423  0.065297046  0.061176017  0.081819299   0.20829236  0.021281721  0.020366704  0.031950239  0.073598663 
  326000   -1798234.2    10563.762    200.18685    76.914057    88.813394    81.150246    1400.2607  0.064547068   0.06189854  0.083221813   0.20966742  0.020483468   0.02012999  0.033023167  0.073636624 
  327000   -1798255.8    10536.338     64.73266    76.914057    88.813394    81.150246    1396.6256  0.064720902  0.061692376  0.083932498   0.21034578  0.021229846  0.020932863  0.032476825  0.074639534 
  328000   -1798286.5    10558.704   -197.58918    76.914057    88.813394    81.150246    1399.5904  0.064375332  0.061002785  0.082443138   0.20782125  0.020759959  0.020017862  0.032718024  0.073495845 
  329000   -1798251.2    10516.806    217.27884    76.914057    88.813394    81.150246    1394.0366  0.064544944  0.061915464  0.083044132   0.20950454   0.02076468  0.020815359  0.032963445  0.074543484 
  330000   -1798249.8     10581.61    250.66857    76.914057    88.813394    81.150246    1402.6266  0.065025456  0.061966965  0.084442636   0.21143506  0.021170647  0.020427215  0.032897846  0.074495709 
  331000   -1798227.6    10584.938    149.61262    76.914057    88.813394    81.150246    1403.0677  0.064779663  0.063189096  0.082439796   0.21040856    0.0210597  0.020981944  0.031870259  0.073911903 
  332000   -1798232.3    10595.256    185.00627    76.914057    88.813394    81.150246    1404.4355   0.06427526  0.062355032  0.084391717   0.21102201  0.020731535  0.020682634  0.033489067  0.074903236 
  333000   -1798179.5    10557.264    437.19191    76.914057    88.813394    81.150246    1399.3994  0.064275908  0.062799186  0.084665352   0.21174045  0.020502618  0.020803078  0.033965399  0.075271094 
  334000     -1798225    10584.934    257.43577    76.914057    88.813394    81.150246    1403.0672  0.064611008  0.062497163  0.083521842   0.21063001  0.020937855  0.020990729  0.032919282  0.074847866 
  335000   -1798216.6     10591.42    171.93624    76.914057    88.813394    81.150246     1403.927  0.063931699  0.061863144  0.084508907   0.21030375  0.020812084  0.021122639  0.033852574  0.075787297 
  336000   -1798282.5    10575.357    37.089501    76.914057    88.813394    81.150246    1401.7977  0.064317496  0.061575616  0.083692466   0.20958558  0.020582747  0.021132049  0.032038079  0.073752875 
  337000   -1798249.9    10558.466   -251.88564    76.914057    88.813394    81.150246    1399.5588   0.06414838  0.062339451  0.083006622   0.20949445  0.020735338  0.020842444  0.033167352  0.074745134 
  338000   -1798249.3    10534.871    128.64116    76.914057    88.813394    81.150246    1396.4311  0.064593922  0.063056792  0.084116504   0.21176722  0.021118715  0.020633725  0.033837042  0.075589481 
  339000   -1798186.3     10600.71     499.1036    76.914057    88.813394    81.150246    1405.1583  0.065355702  0.062880623  0.083069582   0.21130591  0.021172311  0.021203755  0.032550389  0.074926455 
  340000   -1798181.5    10550.907    357.49242    76.914057    88.813394    81.150246    1398.5568  0.064624997  0.062249735   0.08293483   0.20980956  0.021501085  0.020213811  0.032172886  0.073887783 
  341000   -1798237.2    10480.869   -118.39489    76.914057    88.813394    81.150246     1389.273   0.06506234  0.062802201  0.084575636   0.21244018  0.021247876  0.020822769  0.033173254    0.0752439 
  342000     -1798315    10524.578    191.25263    76.914057    88.813394    81.150246    1395.0668  0.064927757  0.062754121  0.083889398   0.21157128  0.021297453  0.020710441  0.033407621  0.075415515 
  343000     -1798195    10583.558    815.34625    76.914057    88.813394    81.150246    1402.8848  0.065175992  0.063253281  0.084176088   0.21260536  0.021645091  0.020837351  0.032940249  0.075422691 
  344000   -1798206.2     10575.75    149.38199    76.914057    88.813394    81.150246    1401.8499  0.064523848  0.062757524  0.084951894   0.21223327  0.020463719  0.020521077   0.03374834  0.074733136 
  345000     -1798276    10532.735   -375.93574    76.914057    88.813394    81.150246    1396.1481  0.064540321  0.062482061  0.084058115    0.2110805  0.020657598  0.020132489  0.033263223   0.07405331 
  346000   -1798213.8    10563.884    460.52355    76.914057    88.813394    81.150246    1400.2769  0.064203625  0.063364292   0.08409692   0.21166484  0.020930882  0.020583873  0.033196439  0.074711195 
  347000   -1798285.7     10643.64    139.49929    76.914057    88.813394    81.150246    1410.8488  0.064317668  0.062325179  0.084082993   0.21072584  0.020938136  0.020103663  0.032745111   0.07378691 
  348000   -1798164.3    10603.095    635.57247    76.914057    88.813394    81.150246    1405.4745  0.064891785  0.062631826  0.083620223   0.21114383  0.020995993  0.020478467  0.032837292  0.074311752 
  349000   -1798214.6    10607.753    613.13887    76.914057    88.813394    81.150246     1406.092   0.06490211  0.063347923  0.084072189   0.21232222  0.020621319  0.021138283  0.032741002  0.074500604 
  350000   -1798226.9    10532.781    428.17354    76.914057    88.813394    81.150246    1396.1541  0.065711857  0.062636857  0.085007794   0.21335651  0.020986444  0.020321616  0.034022616  0.075330676 
  351000   -1798213.8    10585.399    631.91639    76.914057    88.813394    81.150246    1403.1288   0.06514014  0.062482073  0.085309988    0.2129322  0.020680231  0.019789193  0.033599555  0.074068979 
  352000     -1798272    10562.234   -263.23195    76.914057    88.813394    81.150246    1400.0582  0.065262027  0.062862856  0.083517654   0.21164254  0.020939868  0.020766781  0.032465666  0.074172315 
  353000     -1798198    10619.252    134.28663    76.914057    88.813394    81.150246    1407.6161  0.065313319  0.062124041  0.085084942    0.2125223  0.020878861  0.020541304  0.033370329  0.074790493 
  354000   -1798255.2    10614.278    139.46783    76.914057    88.813394    81.150246    1406.9568  0.065097369  0.063007951  0.084062638   0.21216796   0.02101749  0.021177472  0.032425699  0.074620661 
  355000   -1798237.1    10499.533    137.95462    76.914057    88.813394    81.150246     1391.747  0.065768328  0.063401854  0.084724931   0.21389511   0.02105851  0.020828213  0.032042162  0.073928885 
  356000   -1798173.4    10540.592    597.55747    76.914057    88.813394    81.150246    1397.1895  0.065827794  0.063271127  0.084350412   0.21344933  0.021173218  0.020893201  0.033379051   0.07544547 
  357000   -1798280.2     10545.36   -256.66886    76.914057    88.813394    81.150246    1397.8215  0.066134725  0.063227575  0.085165123   0.21452742  0.020926328  0.020444775  0.033967882  0.075338985 
  358000   -1798251.4    10600.194     34.67616    76.914057    88.813394    81.150246      1405.09  0.064504558  0.064124435  0.084085303   0.21271429  0.020343228  0.020703982   0.03239945   0.07344666 
  359000   -1798241.3    10548.997     368.1284    76.914057    88.813394    81.150246    1398.3036  0.065540024  0.062191483  0.084549556   0.21228106  0.021193967  0.020153761  0.033923162  0.075270891 
  360000   -1798203.1    10542.736      198.883    76.914057    88.813394    81.150246    1397.4738  0.066118553  0.064707756  0.085339112   0.21616542   0.02097109  0.020982955  0.033694523  0.075648568 
  361000   -1798250.6    10572.218    458.25869    76.914057    88.813394    81.150246    1401.3816  0.066282236  0.063674175  0.084090203   0.21404661  0.021049823  0.020534104  0.032706806  0.074290732 
  362000     -1798228    10559.243    272.64433    76.914057    88.813394    81.150246    1399.6617  0.065259463   0.06407322   0.08593631   0.21526899   0.02153137  0.020394157  0.033623486  0.075549013 
  363000   -1798231.3    10574.453    238.95465    76.914057    88.813394    81.150246    1401.6779  0.065517588  0.063599746  0.085684555   0.21480189  0.020760287   0.02089097  0.033092681  0.074743938 
  364000   -1798291.5    10636.333    483.74015    76.914057    88.813394    81.150246    1409.8802  0.065922557  0.062450613  0.085371693   0.21374486  0.020975571  0.020188509  0.032841455  0.074005535 
  365000   -1798294.4    10594.311     549.9659    76.914057    88.813394    81.150246    1404.3102   0.06610151  0.063053101  0.085334922   0.21448953  0.021030687  0.020540198  0.033947357  0.075518242 
  366000   -1798232.6    10553.434      567.772    76.914057    88.813394    81.150246    1398.8917  0.066319138  0.063013623   0.08478651   0.21411927  0.021052681  0.020429923  0.032716195    0.0741988 
  367000     -1798271    10565.679    104.91485    76.914057    88.813394    81.150246    1400.5148  0.065205391  0.063408307  0.085583398    0.2141971  0.020602816  0.020805543  0.033376466  0.074784825 
  368000   -1798226.8    10565.917    133.44856    76.914057    88.813394    81.150246    1400.5464  0.065688366  0.063497466  0.085711628   0.21489746  0.021096633  0.020389939  0.033801509   0.07528808 
  369000   -1798244.4    10527.015    458.04373    76.914057    88.813394    81.150246    1395.3898  0.066357829  0.063260466  0.084966382   0.21458468  0.021209391  0.020644194  0.032955254  0.074808839 
  370000   -1798240.2     10623.75    220.25401    76.914057    88.813394    81.150246    1408.2123   0.06717376   0.06408506  0.084994336   0.21625316  0.021152632  0.020759829  0.033217423  0.075129884 
  371000   -1798235.8    10549.473    319.86085    76.914057    88.813394    81.150246    1398.3667   0.06613787  0.062940183  0.086345376   0.21542343  0.021010433  0.020319347  0.034074066  0.075403846 
  372000   -1798303.7     10599.22    67.522602    76.914057    88.813394    81.150246    1404.9608  0.065926296    0.0644098  0.085868496   0.21620459  0.020776751  0.021152633  0.033493043  0.075422427 
  373000   -1798273.2    10660.243    358.76939    76.914057    88.813394    81.150246    1413.0496  0.066289989  0.064195592  0.084978526   0.21546411  0.021023558  0.020420143  0.032807429   0.07425113 
  374000   -1798279.2    10584.659    83.457742    76.914057    88.813394    81.150246    1403.0308  0.067337364  0.063990348  0.085325734   0.21665345  0.021454358  0.020427531  0.033662782  0.075544671 
  375000   -1798222.1    10586.721    347.57369    76.914057    88.813394    81.150246    1403.3041  0.067976179  0.064053571  0.085895541   0.21792529  0.021257699  0.020611388  0.032863501  0.074732588 
  376000   -1798217.1    10601.746    364.18403    76.914057    88.813394    81.150246    1405.2957  0.067083111  0.063981493  0.085654067   0.21671867   0.02152747  0.020737419  0.032133208  0.074398096 
  377000   -1798279.7    10602.226     261.5977    76.914057    88.813394    81.150246    1405.3593  0.065612877  0.064361542  0.087307884    0.2172823   0.02040292  0.020744857  0.033517719  0.074665496 
  378000   -1798266.4    10565.165    11.344546    76.914057    88.813394    81.150246    1400.4468  0.067029644   0.06477069  0.087094287   0.21889462  0.020886023  0.020853798  0.033725106  0.075464927 
  379000     -1798226    10644.265    618.99128    76.914057    88.813394    81.150246    1410.9317  0.066014547  0.064743825  0.087428191   0.21818656  0.020637874  0.020429672  0.033509761  0.074577307 
  380000   -1798244.7    10529.286     287.8364    76.914057    88.813394    81.150246    1395.6908  0.066771173  0.064871897  0.088168466   0.21981154  0.021011529  0.021323652  0.033893134  0.076228314 
  381000   -1798205.7    10572.516    498.06821    76.914057    88.813394    81.150246    1401.4211  0.066368411   0.06504692  0.087317372    0.2187327  0.021053318  0.021207099  0.034256444  0.076516861 
  382000   -1798178.5    10495.786     213.4337    76.914057    88.813394    81.150246    1391.2504  0.066660398  0.063981445  0.087454975   0.21809682  0.021007966  0.020350958  0.033996564  0.075355489 
  383000   -1798199.9    10574.246     933.3678    76.914057    88.813394    81.150246    1401.6504  0.066578009  0.064188836  0.087609522   0.21837637  0.020628388  0.020660044  0.035027581  0.076316012 
  384000   -1798275.6    10559.753   -188.75138    76.914057    88.813394    81.150246    1399.7294  0.066900803  0.064551094  0.087428006    0.2188799  0.020770407  0.020458144  0.034228185  0.075456737 
  385000     -1798230    10555.418    120.57942    76.914057    88.813394    81.150246    1399.1547  0.066958282  0.065300296  0.086207814   0.21846639   0.02083278  0.020438236  0.033056393  0.074327409 
  386000   -1798231.2    10535.473     159.8588    76.914057    88.813394    81.150246    1396.5109  0.067155697  0.064367084    0.0876188   0.21914158  0.020826162  0.020460946  0.033801424  0.075088531 
  387000   -1798207.3    10586.357    386.23332    76.914057    88.813394    81.150246    1403.2559  0.066812746  0.064748545  0.087646788   0.21920808  0.020563994  0.020891787  0.033876587  0.075332369 
  388000     -1798236     10616.02    150.03697    76.914057    88.813394    81.150246    1407.1877  0.066685022  0.064423082  0.086973003   0.21808111  0.021013678  0.020110338  0.032965169  0.074089186 
  389000   -1798208.8    10595.689    346.40495    76.914057    88.813394    81.150246    1404.4928  0.067324322  0.064056746  0.088187483   0.21956855  0.020762225  0.020469196  0.034030366  0.075261787 
  390000   -1798205.8    10537.326    506.17358    76.914057    88.813394    81.150246    1396.7566  0.067582329  0.065547687  0.087842828   0.22097284  0.021166989  0.020854059  0.033429426  0.075450474 
  391000   -1798187.8    10582.121    426.00679    76.914057    88.813394    81.150246    1402.6943   0.06753319  0.066003191  0.087278078   0.22081446  0.021120768  0.021151602   0.03295555   0.07522792 
  392000   -1798216.8     10551.28    338.92173    76.914057    88.813394    81.150246    1398.6063  0.066902452   0.06601907   0.08903993   0.22196145  0.020530812  0.021210342  0.033545362  0.075286516 
  393000   -1798227.5    10556.653   -125.42943    76.914057    88.813394    81.150246    1399.3185  0.066502797  0.065500651  0.087119878   0.21912333  0.020568322  0.020487238  0.032521054  0.073576613 
  394000   -1798226.4    10569.806    681.87957    76.914057    88.813394    81.150246    1401.0619  0.067190781  0.065226223  0.087593633   0.22001064  0.021317732  0.020580975  0.032451868  0.074350575 
  395000   -1798228.2    10564.462    248.08944    76.914057    88.813394    81.150246    1400.3535  0.067201923  0.065779362  0.086880622   0.21986191  0.020769933  0.021037658  0.033135161  0.074942752 
  396000   -1798296.8    10537.978   -1.2039074    76.914057    88.813394    81.150246     1396.843   0.06719681  0.065479913  0.088232215   0.22090894  0.020856667  0.020472347  0.032297552  0.073626565 
  397000   -1798174.3    10555.388    526.77234    76.914057    88.813394    81.150246    1399.1507  0.067903855  0.066021506  0.088905935    0.2228313  0.021053044  0.021384306  0.033245077  0.075682426 
  398000   -1798268.5    10484.816    231.35275    76.914057    88.813394    81.150246    1389.7963  0.067356932  0.066210562   0.08879529   0.22236278  0.020859786   0.02052108  0.033532722  0.074913587 
  399000     -1798252    10466.707    201.61429    76.914057    88.813394    81.150246    1387.3958   0.06705002  0.065643722  0.088371681   0.22106542  0.020325518  0.020656403  0.033245416  0.074227337 
  400000   -1798223.8    10553.004    391.53708    76.914057    88.813394    81.150246    1398.8348  0.067693122  0.065107344   0.08888584   0.22168631  0.021212867  0.020542434   0.03196372  0.073719021 
  401000   -1798278.5    10471.763   -279.25624    76.914057    88.813394    81.150246     1388.066  0.066789122  0.065775553  0.088418014   0.22098269  0.020104239  0.020544887  0.031432366  0.072081492 
  402000   -1798243.1    10585.348    124.10558    76.914057    88.813394    81.150246     1403.122  0.066596682   0.06574239  0.088086896   0.22042597  0.020175749  0.020587428  0.032259474  0.073022652 
  403000   -1798302.2    10532.242    -115.2991    76.914057    88.813394    81.150246    1396.0827  0.067435974  0.065817471  0.087436879   0.22069032  0.020520669  0.020269563  0.031177864  0.071968097 
  404000   -1798237.3    10605.721    452.36603    76.914057    88.813394    81.150246    1405.8225   0.06657211  0.066662966  0.087854422    0.2210895  0.020592907  0.020628736  0.032628393  0.073850037 
  405000   -1798195.6    10551.736    295.68281    76.914057    88.813394    81.150246    1398.6666   0.06736066  0.065952215  0.088555727    0.2218686  0.020788563  0.020847845  0.032277977  0.073914386 
  406000   -1798233.4    10540.555    472.58983    76.914057    88.813394    81.150246    1397.1846  0.067949449  0.064895469  0.087058827   0.21990375  0.021347761  0.020519601  0.031441741  0.073309102 
  407000   -1798269.5    10570.101    26.705082    76.914057    88.813394    81.150246    1401.1011  0.067277627  0.065495495   0.08802831   0.22080143  0.021122555  0.020286528  0.032948231  0.074357314 
  408000   -1798263.7    10525.386    230.47433    76.914057    88.813394    81.150246     1395.174  0.067489229  0.065727399  0.088123859   0.22134049  0.020868914  0.020539928  0.031969387  0.073378229 
  409000     -1798248    10515.958    163.40415    76.914057    88.813394    81.150246    1393.9242  0.067628127  0.065789348  0.089982985   0.22340046  0.020711883  0.020883471  0.032789998  0.074385351 
  410000   -1798218.9    10650.209    164.43441    76.914057    88.813394    81.150246    1411.7195  0.067940129  0.065052886  0.087689964   0.22068298   0.02075584  0.020303423  0.032572866  0.073632129 
  411000   -1798232.4    10597.351   -119.89433    76.914057    88.813394    81.150246    1404.7131  0.068183773   0.06598719  0.087456823   0.22162779  0.020445101  0.021078475  0.032978027  0.074501603 
  412000   -1798253.2    10514.424    445.77997    76.914057    88.813394    81.150246    1393.7209  0.068858689  0.065717878  0.088884911   0.22346148   0.02076461  0.020661224  0.033642559  0.075068393 
  413000   -1798245.3    10551.333    608.83031    76.914057    88.813394    81.150246    1398.6133  0.068834939  0.065931191  0.089814144   0.22458028  0.021311774  0.020582778  0.032913086  0.074807638 
  414000   -1798216.5    10559.896    661.82425    76.914057    88.813394    81.150246    1399.7483  0.067750106  0.066688727  0.089343112   0.22378194  0.020696644  0.020841393  0.033252398  0.074790435 
  415000   -1798250.1    10553.488    7.3245526    76.914057    88.813394    81.150246    1398.8989  0.068285621  0.066079189  0.088722385   0.22308719  0.021099756  0.020540984  0.032577147  0.074217887 
  416000   -1798223.3    10593.665    387.17757    76.914057    88.813394    81.150246    1404.2245  0.069318086  0.066989837  0.089807046   0.22611497  0.020836151  0.020903312  0.033316241  0.075055705 
  417000   -1798289.4    10585.897    414.07841    76.914057    88.813394    81.150246    1403.1949  0.068196651  0.065439677  0.088622855   0.22225918  0.020562217  0.020030581   0.03233103  0.072923828 
  418000     -1798217    10567.451    471.81464    76.914057    88.813394    81.150246    1400.7498  0.068167516   0.06702452  0.089407483   0.22459952  0.020935249  0.021526019  0.032506976  0.074968244 
  419000   -1798175.7     10628.14    706.08922    76.914057    88.813394    81.150246    1408.7942  0.070246739  0.066314376  0.089729553   0.22629067   0.02116272  0.020694896  0.031716656  0.073574272 
  420000   -1798244.6    10551.496    40.461774    76.914057    88.813394    81.150246    1398.6348  0.069393496  0.066457129  0.089506582   0.22535721  0.021398484   0.02037855  0.033025657  0.074802691 
  421000   -1798165.4    10533.982    157.16794    76.914057    88.813394    81.150246    1396.3133  0.069543375  0.067176656  0.090803311   0.22752334  0.020910949   0.02081564  0.033385458  0.075112048 
  422000   -1798281.5    10531.154   -39.028786    76.914057    88.813394    81.150246    1395.9384  0.069394291  0.066866571  0.090632599   0.22689346  0.020488286  0.020359183  0.032745902  0.073593372 
  423000   -1798243.6    10466.508    114.81403    76.914057    88.813394    81.150246    1387.3695  0.069833849  0.066812714  0.090131048   0.22677761  0.021295663  0.020450874  0.032095763    0.0738423 
  424000   -1798286.8    10618.168    20.077513    76.914057    88.813394    81.150246    1407.4725  0.070423264  0.066648355  0.090931841   0.22800346  0.020980522     0.020211  0.032227435  0.073418956 
  425000   -1798180.2    10517.671    328.86326    76.914057    88.813394    81.150246    1394.1512  0.069532393   0.06704127  0.090909127   0.22748279  0.021422354  0.020676971  0.032283944   0.07438327 
  426000   -1798259.7    10542.506    170.18847    76.914057    88.813394    81.150246    1397.4432  0.069502172  0.066458564  0.089798261     0.225759  0.020613981  0.020915006  0.032003784  0.073532771 
  427000   -1798267.3    10573.484   -119.70079    76.914057    88.813394    81.150246    1401.5494  0.069648044  0.066834028  0.091208031    0.2276901  0.020692679  0.020508076  0.032342681  0.073543436 
  428000   -1798220.5    10509.984   -332.70428    76.914057    88.813394    81.150246    1393.1323  0.069343987  0.066501736  0.090588053   0.22643378  0.020951038  0.020953135    0.0328326  0.074736774 
  429000   -1798143.4    10489.417    669.89857    76.914057    88.813394    81.150246    1390.4061  0.070031127  0.067367401  0.090669401   0.22806793  0.021293301  0.021219384  0.032908653  0.075421338 
  430000   -1798232.5    10575.752   -94.134435    76.914057    88.813394    81.150246    1401.8501  0.070103558  0.067259456  0.091227763   0.22859078  0.021225654  0.020732147  0.033592386  0.075550188 
  431000     -1798245    10543.172    239.67852    76.914057    88.813394    81.150246    1397.5315  0.069440334  0.066571072  0.092306573   0.22831798  0.021123131  0.020555948  0.033876849  0.075555928 
  432000   -1798287.2    10596.268    88.238162    76.914057    88.813394    81.150246    1404.5696  0.070177794  0.066780539  0.091548958   0.22850729  0.021187938  0.020582351  0.032751365  0.074521654 
  433000   -1798315.4    10634.533    3.7283097    76.914057    88.813394    81.150246    1409.6416  0.069798762    0.0667314  0.090975142    0.2275053  0.020456955  0.020756635  0.033196094  0.074409685 
  434000   -1798211.4    10499.088    720.85424    76.914057    88.813394    81.150246     1391.688  0.070188598  0.067179837  0.092042566     0.229411  0.021175495  0.020289893  0.034507356  0.075972745 
  435000   -1798269.2    10507.239    184.25937    76.914057    88.813394    81.150246    1392.7684  0.069481589  0.067917671  0.092080703   0.22947996  0.020550043  0.021137171  0.032900053  0.074587267 
  436000     -1798281    10530.867     131.7108    76.914057    88.813394    81.150246    1395.9004  0.069929767  0.068303242  0.091899864   0.23013287  0.020893984  0.021207488  0.033220932  0.075322404 
  437000   -1798190.9    10515.877    376.37172    76.914057    88.813394    81.150246    1393.9135  0.070301994   0.06681297  0.092549744   0.22966471  0.021030307  0.020285236  0.034523174  0.075838717 
  438000   -1798231.4    10508.953    182.77094    76.914057    88.813394    81.150246    1392.9957  0.069867029  0.067162997  0.091898662   0.22892869  0.021186024  0.020627747  0.033886231  0.075700003 
  439000   -1798252.7    10587.629    46.619033    76.914057    88.813394    81.150246    1403.4244  0.068775849  0.067691063  0.092171205   0.22863812  0.020448621  0.020508301  0.034313533  0.075270455 
  440000   -1798231.8     10603.87    183.32468    76.914057    88.813394    81.150246    1405.5773  0.070041862  0.068111219   0.09301077   0.23116385    0.0207129  0.020888969  0.034220745  0.075822614 
  441000     -1798276    10537.911   -192.83684    76.914057    88.813394    81.150246    1396.8341  0.070216345  0.067050574  0.093032036   0.23029896    0.0209635  0.020443935  0.034075473  0.075482907 
  442000   -1798227.5    10509.498    354.01932    76.914057    88.813394    81.150246    1393.0678  0.069852902  0.068129151  0.091904013   0.22988607  0.020659631  0.020782002  0.034142112  0.075583745 
  443000   -1798212.1    10529.807    383.09645    76.914057    88.813394    81.150246    1395.7599  0.071250004  0.068197386  0.092597065   0.23204445  0.021108151  0.021062407  0.033985001  0.076155558 
  444000   -1798287.8     10523.69   -436.00771    76.914057    88.813394    81.150246     1394.949    0.0711568  0.067643814  0.092557988    0.2313586  0.021330591   0.02056918  0.033375992  0.075275764 
  445000   -1798284.8    10570.688     463.2451    76.914057    88.813394    81.150246    1401.1788  0.071094532  0.068267821  0.092538123   0.23190048  0.021159261   0.02119595  0.034423946  0.076779157 
  446000   -1798196.1    10561.925    302.72577    76.914057    88.813394    81.150246    1400.0172  0.071492956  0.068926772  0.092468144   0.23288787  0.020911676  0.020885567   0.03350112  0.075298364 
  447000   -1798229.8    10612.749    300.12548    76.914057    88.813394    81.150246    1406.7542  0.071774881   0.06811761  0.092665878   0.23255837  0.021502118  0.020663238  0.034147186  0.076312542 
  448000     -1798215    10567.447    259.04494    76.914057    88.813394    81.150246    1400.7492  0.071749749  0.067539349  0.092064253   0.23135335  0.021611469  0.020404763  0.033695901  0.075712134 
  449000   -1798310.9    10582.206    127.70787    76.914057    88.813394    81.150246    1402.7055  0.071139413  0.068629794  0.092822368   0.23259157  0.020527503   0.02075466  0.034699276  0.075981439 
  450000     -1798230    10540.927    255.97039    76.914057    88.813394    81.150246    1397.2339  0.070589422  0.068523722  0.092937533   0.23205068  0.021183129   0.02070018  0.034353828  0.076237136 
  451000   -1798241.8    10629.141    217.88054    76.914057    88.813394    81.150246    1408.9269  0.071435019  0.067889229  0.093094668   0.23241892  0.020784303  0.020289689  0.034866808    0.0759408 
  452000   -1798236.5    10601.422    446.13353    76.914057    88.813394    81.150246    1405.2527  0.071580811    0.0682632  0.092929459   0.23277347  0.021617177  0.021087801  0.033787553  0.076492531 
  453000   -1798293.4    10557.406   -8.2913801    76.914057    88.813394    81.150246    1399.4183  0.071444977  0.068536939   0.09322548    0.2332074  0.021056268   0.02137702  0.034861814  0.077295103 
  454000   -1798298.8    10532.318    82.595512    76.914057    88.813394    81.150246    1396.0928  0.071554502  0.067920687   0.09274506   0.23222025  0.021308538  0.020404486  0.034835565  0.076548589 
  455000   -1798228.7    10568.825     703.2983    76.914057    88.813394    81.150246    1400.9319  0.070868524   0.06914173  0.094010488   0.23402074  0.021137418  0.020662549  0.034564231  0.076364199 
  456000   -1798241.5    10583.903    24.851024    76.914057    88.813394    81.150246    1402.9305  0.070676262  0.068887193  0.093302491   0.23286595  0.020543006  0.021076891  0.034257797  0.075877694 
  457000   -1798242.8    10567.261   -82.774078    76.914057    88.813394    81.150246    1400.7245  0.071016359  0.068846486  0.094139836   0.23400268  0.020836327  0.020711445  0.033560251  0.075108024 
  458000     -1798210     10583.03    156.25057    76.914057    88.813394    81.150246    1402.8148   0.07123879  0.068734688  0.094465192   0.23443867  0.021111125  0.020390791  0.032793177  0.074295093 
  459000   -1798262.1    10564.516    437.38063    76.914057    88.813394    81.150246    1400.3608  0.072061991  0.069353119  0.094500564   0.23591567  0.021465981  0.021171255  0.033880751  0.076517988 
  460000   -1798247.7    10609.158    202.05096    76.914057    88.813394    81.150246    1406.2782  0.070924134  0.069080475  0.095409204   0.23541381  0.020773749  0.020813117   0.03429646  0.075883326 
  461000   -1798284.9    10577.681    282.58466    76.914057    88.813394    81.150246    1402.1058  0.070678015  0.068800682  0.094455204    0.2339339  0.020695932  0.020600146  0.034141738  0.075437816 
  462000   -1798272.7    10622.631   -87.720426    76.914057    88.813394    81.150246    1408.0641  0.070981273  0.069714524   0.09495891   0.23565471  0.020703639  0.020954559  0.034657901  0.076316099 
  463000   -1798194.8    10543.722    533.57094    76.914057    88.813394    81.150246    1397.6044  0.072304195  0.069629703  0.096208071   0.23814197  0.020420238  0.020875987  0.033959359  0.075255584 
  464000   -1798225.7    10579.821    249.03306    76.914057    88.813394    81.150246    1402.3894  0.072546989   0.06964613  0.095587338   0.23778046  0.021179336  0.020638006  0.033095638  0.074912981 
  465000   -1798248.8    10511.117     87.45713    76.914057    88.813394    81.150246    1393.2825  0.071864518  0.069213171  0.096312167   0.23738986  0.021037167  0.020672149  0.035165124  0.076874441 
  466000   -1798202.5    10570.921    721.46105    76.914057    88.813394    81.150246    1401.2098  0.071891493  0.069126005  0.096243291   0.23726079  0.020919382  0.020614476   0.03446096  0.075994818 
  467000   -1798286.5    10560.337   -87.637965    76.914057    88.813394    81.150246    1399.8068  0.072234341  0.069638167  0.095655096    0.2375276  0.020655905  0.021120166  0.034468303  0.076244374 
  468000   -1798173.5    10586.456    935.73388    76.914057    88.813394    81.150246    1403.2689  0.072113601  0.069469022  0.096609033   0.23819166  0.020858445  0.020411366  0.034443148  0.075712959 
  469000   -1798218.6    10572.121    781.21726    76.914057    88.813394    81.150246    1401.3687  0.072646851  0.069238059  0.095934006   0.23781892   0.02168494  0.021039918  0.034612986  0.077337845 
  470000   -1798265.5    10549.884   -133.97667    76.914057    88.813394    81.150246    1398.4212  0.072650656  0.069627462  0.095290796   0.23756891  0.021217655   0.02065746  0.035231549  0.077106665 
  471000   -1798243.5    10570.586    763.96258    76.914057    88.813394    81.150246    1401.1653  0.072334139  0.068942492   0.09540212   0.23667875  0.020813115  0.020543879  0.033876025  0.075233019 
  472000     -1798216    10571.581    189.65004    76.914057    88.813394    81.150246    1401.2973  0.072588534  0.070267175  0.096219501   0.23907521  0.021245603  0.020821265  0.034716817  0.076783685 
  473000   -1798331.7    10521.654    132.68232    76.914057    88.813394    81.150246    1394.6792  0.073175572  0.069500409  0.096051544   0.23872753  0.021362355  0.020612787  0.034314666  0.076289808 
  474000   -1798198.7    10589.569    448.82127    76.914057    88.813394    81.150246    1403.6815  0.072650326  0.069915312  0.096954013   0.23951965  0.020830405  0.020651533  0.034794024  0.076275962 
  475000   -1798261.9    10582.338   -19.329538    76.914057    88.813394    81.150246    1402.7231  0.072745113  0.070127425  0.097470705   0.24034324  0.021048771  0.020989432  0.034466466  0.076504668 
  476000   -1798180.2    10613.622     639.1289    76.914057    88.813394    81.150246    1406.8698  0.072738282  0.068686183  0.096391263   0.23781573  0.020777703  0.020256563  0.034789111  0.075823376 
  477000   -1798280.2    10582.211    70.745706    76.914057    88.813394    81.150246    1402.7063  0.072705728  0.069122316  0.097186657    0.2390147  0.020806361  0.020746104  0.034523516  0.076075981 
  478000   -1798202.7    10545.281    79.098363    76.914057    88.813394    81.150246     1397.811  0.073933804  0.070245248  0.096284737   0.24046379  0.021194236  0.020915443  0.033802186  0.075911865 
  479000   -1798278.5    10514.083    500.41449    76.914057    88.813394    81.150246    1393.6756  0.073508178  0.070506867  0.097506676   0.24152172  0.020964799  0.020711176  0.034844238  0.076520213 
  480000   -1798238.5    10609.068    228.07887    76.914057    88.813394    81.150246    1406.2662  0.073090141  0.071097294  0.098353527   0.24254096  0.021112281  0.021058484  0.035331373  0.077502137 
  481000   -1798278.4    10561.109     79.46147    76.914057    88.813394    81.150246    1399.9091  0.073793489   0.07191088  0.098214624   0.24391899   0.02077318  0.021318711  0.034417575  0.076509466 
  482000   -1798254.9    10552.463   -99.527106    76.914057    88.813394    81.150246     1398.763  0.074838833  0.073356146  0.098965148   0.24716013  0.020966353  0.021110199  0.034379466  0.076456018 
  483000   -1798252.9    10523.104    240.50572    76.914057    88.813394    81.150246    1394.8715  0.073898697  0.071760473  0.099724991   0.24538416   0.02078674  0.020488572  0.035144631  0.076419943 
  484000   -1798244.9    10499.734    235.36828    76.914057    88.813394    81.150246    1391.7737  0.074092417  0.071318011  0.098996529   0.24440696  0.021085552  0.020952838  0.035306444  0.077344834 
  485000   -1798264.7    10468.429   -287.12626    76.914057    88.813394    81.150246    1387.6241  0.073621183   0.07177813   0.09877714   0.24417645  0.020822231  0.020813132  0.034413296  0.076048659 
  486000   -1798304.2    10585.647   -36.700724    76.914057    88.813394    81.150246    1403.1616  0.074412231  0.071773008  0.099179656   0.24536489  0.020942009  0.020682213   0.03567184  0.077296061 
  487000   -1798236.2    10506.952    470.16536    76.914057    88.813394    81.150246    1392.7305  0.073584294  0.071137083  0.099953999   0.24467538  0.021183179  0.020872413  0.034903226  0.076958818 
  488000   -1798297.1    10524.611   -149.70105    76.914057    88.813394    81.150246    1395.0712  0.075031093  0.072143987  0.099623243   0.24679832  0.020503776   0.02074082  0.035336553  0.076581149 
  489000   -1798246.8    10533.415    122.33475    76.914057    88.813394    81.150246    1396.2381  0.075107872  0.072835328    0.1004057    0.2483489  0.021212104  0.020835167  0.034778315  0.076825586 
  490000   -1798254.9    10575.173     281.8612    76.914057    88.813394    81.150246    1401.7734  0.074599817  0.070991682   0.10042216   0.24601366  0.020626074  0.020651974  0.035259359  0.076537408 
  491000   -1798283.2    10576.889   -204.18696    76.914057    88.813394    81.150246    1402.0008  0.075892761  0.071009525   0.10012503   0.24702732  0.020688227  0.020300992  0.035110888  0.076100107 
  492000   -1798216.8    10554.513      752.323    76.914057    88.813394    81.150246    1399.0348   0.07486678  0.071871934   0.10009744   0.24683615  0.020649891  0.020751491  0.035000257  0.076401639 
  493000   -1798255.7    10584.654     51.37171    76.914057    88.813394    81.150246    1403.0301  0.074965517  0.072322485   0.10114834   0.24843634  0.020854638  0.020743886   0.03615023  0.077748753 
  494000   -1798274.8    10569.369   -14.212892    76.914057    88.813394    81.150246     1401.004  0.075773355  0.071586597   0.10111133   0.24847128  0.021234629  0.020797587  0.036178747  0.078210963 
  495000   -1798231.4    10615.993    206.98715    76.914057    88.813394    81.150246    1407.1842  0.074582043  0.071584051   0.10171204   0.24787813  0.020485201  0.020944989  0.035827475  0.077257666 
  496000   -1798267.4    10568.858   -121.68895    76.914057    88.813394    81.150246    1400.9362  0.074334207  0.072496209   0.10212116   0.24895157  0.020177091  0.020867979  0.035862057  0.076907128 
  497000   -1798248.3    10622.825    440.32434    76.914057    88.813394    81.150246    1408.0898  0.074402416  0.071157249   0.10218162   0.24774129  0.020720757  0.020642585  0.035848048   0.07721139 
  498000     -1798222    10511.006     329.6771    76.914057    88.813394    81.150246    1393.2678  0.075463432  0.071984441   0.10105199   0.24849987  0.020947848  0.020679133  0.035611326  0.077238307 
  499000   -1798266.1    10614.082    -51.06086    76.914057    88.813394    81.150246    1406.9309  0.075003916  0.072667759   0.10197102    0.2496427  0.020926374  0.020864688  0.036122703  0.077913765 
  500000   -1798225.5    10559.205    265.24195    76.914057    88.813394    81.150246    1399.6568  0.074862629  0.070787678   0.10193772   0.24758802  0.021034644  0.020571876  0.035934881  0.077541402 
  501000   -1798269.3    10623.694    46.998061    76.914057    88.813394    81.150246    1408.2049  0.075291648  0.071210956   0.10197196   0.24847457  0.020854784  0.020238931  0.036933854   0.07802757 
  502000   -1798295.5    10554.369    122.27897    76.914057    88.813394    81.150246    1399.0157  0.074916427  0.072259347   0.10227431   0.24945009  0.020699433  0.020923019  0.036066229  0.077688681 
  503000   -1798246.7     10575.61    423.11921    76.914057    88.813394    81.150246    1401.8312  0.074513258  0.072311293   0.10140963   0.24823418   0.02092807  0.021266147  0.036010211  0.078204428 
  504000   -1798226.8    10554.761    399.39038    76.914057    88.813394    81.150246    1399.0676  0.074521504  0.071934539   0.10120436   0.24766041   0.02048165  0.020269693  0.035306148  0.076057491 
  505000   -1798274.6    10576.625    -269.4503    76.914057    88.813394    81.150246    1401.9659  0.075156452  0.071518824   0.10136651   0.24804179  0.021401493  0.020284099   0.03595678  0.077642371 
  506000   -1798249.5    10581.541    192.80957    76.914057    88.813394    81.150246    1402.6174  0.074126419  0.072466859   0.10302611   0.24961939  0.020797238  0.021060221  0.035973742    0.0778312 
  507000   -1798255.4    10579.679   -352.91547    76.914057    88.813394    81.150246    1402.3706  0.074169209  0.071625449   0.10081551   0.24661017  0.020474861  0.020300285  0.035422838  0.076197984 
  508000     -1798299    10615.282   -62.111648    76.914057    88.813394    81.150246    1407.0898  0.075060616  0.071837861   0.10111905   0.24801753  0.020868134  0.020892493  0.036101615  0.077862242 
  509000   -1798249.3    10543.648    385.98258    76.914057    88.813394    81.150246    1397.5945  0.074965107  0.072400307   0.10078003   0.24814544  0.020093788  0.020837407   0.03469693  0.075628125 
  510000   -1798209.8    10591.614    3.6923765    76.914057    88.813394    81.150246    1403.9526  0.075776704  0.071944158   0.10129947   0.24902033  0.020878434  0.020298585  0.035915321   0.07709234 
  511000   -1798228.6    10583.342    213.29339    76.914057    88.813394    81.150246    1402.8561  0.075032416  0.072855501    0.1018412   0.24972912  0.021531365  0.020969596   0.03565877  0.078159731 
  512000     -1798197    10600.545    593.15551    76.914057    88.813394    81.150246    1405.1365  0.074258437  0.072968145   0.10090829   0.24813487  0.020415498  0.021023702  0.035348249  0.076787449 
  513000   -1798194.7    10501.611    326.15472    76.914057    88.813394    81.150246    1392.0224  0.075612062  0.072831708   0.10183516   0.25027893  0.021315389  0.021013998  0.034826371  0.077155759 
  514000     -1798300    10579.196    428.62735    76.914057    88.813394    81.150246    1402.3066  0.074345867  0.071660348   0.10169814   0.24770436  0.020495308  0.020315567  0.035387555   0.07619843 
  515000   -1798221.1    10599.262     532.3257    76.914057    88.813394    81.150246    1404.9664   0.07525677  0.072668602   0.10155299   0.24947837  0.021075254  0.020571043  0.035050308  0.076696605 
  516000   -1798248.7    10602.788    436.44979    76.914057    88.813394    81.150246    1405.4338  0.075332506  0.073429023   0.10298829   0.25174982  0.021046045  0.021117725  0.035260687  0.077424457 
  517000   -1798282.9    10476.535    -294.6728    76.914057    88.813394    81.150246    1388.6986  0.074315787  0.073355625   0.10181779   0.24948921  0.020229297  0.021408566   0.03484547  0.076483333 
  518000   -1798288.9    10497.508   -184.71011    76.914057    88.813394    81.150246    1391.4786   0.07584438  0.073960181   0.10238342   0.25218798  0.021089857  0.021554009  0.035490486  0.078134351 
  519000   -1798229.2    10536.741    589.56064    76.914057    88.813394    81.150246     1396.679  0.075628809   0.07291306   0.10171588   0.25025775  0.020308766   0.02142043  0.034080553  0.075809749 
  520000   -1798234.2    10615.552    230.24122    76.914057    88.813394    81.150246    1407.1257  0.076373925  0.072311479   0.10279462   0.25148002  0.021321435  0.020816659  0.035243318  0.077381413 
  521000   -1798189.5    10490.029    872.58768    76.914057    88.813394    81.150246    1390.4872  0.076023849  0.072364658   0.10279501   0.25118352  0.020717444  0.020752692  0.036551603  0.078021739 
  522000   -1798283.3    10642.428    921.39267    76.914057    88.813394    81.150246    1410.6882  0.075958214  0.073142813   0.10263066   0.25173168  0.021049231  0.021094532  0.035347485  0.077491248 
  523000   -1798183.8    10495.566    375.38646    76.914057    88.813394    81.150246    1391.2211  0.075633019  0.073484557   0.10407835   0.25319593  0.020384695  0.021045471  0.036019136  0.077449303 
  524000   -1798273.5    10548.841    173.38515    76.914057    88.813394    81.150246    1398.2829  0.075199964  0.072762196   0.10303271   0.25099487  0.020573046  0.020633103   0.03480637  0.076012519 
  525000   -1798240.6    10595.549    386.55037    76.914057    88.813394    81.150246    1404.4743  0.075940386  0.072676479   0.10360188   0.25221875   0.02142767  0.020358393  0.035391235  0.077177298 
  526000   -1798291.3    10574.372   -159.63464    76.914057    88.813394    81.150246    1401.6671  0.075347873  0.073406118   0.10317713   0.25193112  0.020544858  0.021106645  0.034754032  0.076405535 
  527000   -1798260.1    10596.708    224.45811    76.914057    88.813394    81.150246    1404.6279  0.075085916  0.072043394   0.10214212   0.24927143  0.020958434  0.020233391  0.035113014  0.076304839 
  528000     -1798268    10584.749    182.49887    76.914057    88.813394    81.150246    1403.0427  0.074719045  0.071831655   0.10100927   0.24755997  0.020648121  0.020617833  0.034959769  0.076225724 
  529000     -1798276    10549.355    124.53835    76.914057    88.813394    81.150246    1398.3511  0.076157127  0.072370137   0.10230535   0.25083262  0.021172506  0.020533739  0.034819559  0.076525804 
  530000   -1798280.3    10557.753   -46.242311    76.914057    88.813394    81.150246    1399.4642  0.075007777  0.072493038   0.10324103   0.25074185  0.020182777  0.020331527  0.035583157   0.07609746 
  531000     -1798248    10567.537    396.52132    76.914057    88.813394    81.150246    1400.7612   0.07536127   0.07194222   0.10275203   0.25005552  0.020190511  0.020500439  0.034729264  0.075420214 
  532000   -1798169.4    10594.596    439.66637    76.914057    88.813394    81.150246    1404.3479  0.075577906  0.071836058   0.10244078   0.24985475   0.02101144  0.020660347  0.035151496  0.076823282 
  533000   -1798183.5    10534.314    960.39048    76.914057    88.813394    81.150246    1396.3574  0.075301793  0.072315418   0.10203205   0.24964927  0.021048474  0.021284098   0.03418423  0.076516802 
  534000   -1798252.1     10552.01   -133.95514    76.914057    88.813394    81.150246     1398.703  0.075697378  0.073219287   0.10237995   0.25129661  0.020985134  0.020547945  0.033208915  0.074741994 
  535000   -1798307.2    10569.475    218.93599    76.914057    88.813394    81.150246    1401.0181  0.075975178  0.071486417   0.10317918   0.25064078  0.020923983  0.019575918   0.03462685  0.075126751 
  536000   -1798300.3    10512.789   -529.14303    76.914057    88.813394    81.150246    1393.5042  0.075628544  0.072918815   0.10284213   0.25138949  0.020478047  0.020663576  0.034682423  0.075824046 
  537000   -1798262.7    10588.677     199.1259    76.914057    88.813394    81.150246    1403.5633  0.075635481  0.072226037   0.10195404   0.24981556   0.02057598  0.020460617   0.03630278  0.077339376 
  538000   -1798281.3    10597.511   -83.541371    76.914057    88.813394    81.150246    1404.7342    0.0764277  0.072542414   0.10239245   0.25136257  0.021507885  0.020511552  0.035797792  0.077817229 
  539000   -1798283.3    10540.236    220.90731    76.914057    88.813394    81.150246    1397.1423  0.076608454   0.07243807   0.10256991   0.25161643  0.021469953  0.020321049   0.03609949  0.077890491 
  540000   -1798240.8    10596.283    178.78982    76.914057    88.813394    81.150246    1404.5715  0.076612514  0.073902104   0.10306745   0.25358206  0.020987737  0.020887387  0.036668616  0.078543741 
  541000   -1798259.8    10551.904    2.8959099    76.914057    88.813394    81.150246     1398.689  0.075978802   0.07410535   0.10364838   0.25373253  0.020778815  0.020353065  0.037347256  0.078479135 
  542000     -1798256    10514.767    221.24648    76.914057    88.813394    81.150246    1393.7663  0.075068464  0.073071844   0.10356651   0.25170681  0.020992801   0.02042388  0.036635661  0.078052342 
  543000   -1798241.4    10639.597    201.52984    76.914057    88.813394    81.150246    1410.3129  0.075226271  0.074023623   0.10217255   0.25142244  0.020634374  0.020582509   0.03622878  0.077445663 
  544000   -1798244.7    10536.021    129.60813    76.914057    88.813394    81.150246    1396.5836  0.076106785  0.073894589   0.10292823   0.25292961    0.0210243  0.021154625  0.037250033  0.079428959 
  545000   -1798267.3    10518.809   -21.070128    76.914057    88.813394    81.150246    1394.3021  0.075367656   0.07321484   0.10300518   0.25158768   0.02027358  0.020841113  0.036760054  0.077874748 
  546000   -1798219.7    10570.502     472.1007    76.914057    88.813394    81.150246    1401.1542  0.076109061  0.073600085   0.10261494   0.25232409  0.020708464  0.021027093  0.036196981  0.077932538 
  547000   -1798237.6    10588.732    377.75151    76.914057    88.813394    81.150246    1403.5707  0.076524807  0.073906481   0.10330165   0.25373294  0.021089004  0.021058989  0.036504544  0.078652537 
  548000   -1798204.9    10509.575    598.52697    76.914057    88.813394    81.150246    1393.0781  0.075620718  0.073394956   0.10362935   0.25264503  0.020382432  0.020365606  0.036155348  0.076903385 
  549000   -1798235.1    10558.214    37.236778    76.914057    88.813394    81.150246    1399.5253  0.076185499  0.073561662   0.10405698   0.25380414  0.020875107  0.020432697  0.037516668  0.078824472 
  550000   -1798232.5    10563.164    463.77501    76.914057    88.813394    81.150246    1400.1815  0.075677787  0.073137622    0.1026341   0.25144951  0.020543003  0.020510049  0.036628881  0.077681932 
  551000   -1798188.1    10543.133    806.56345    76.914057    88.813394    81.150246    1397.5263  0.075603422  0.074414817   0.10440841   0.25442665  0.021219852  0.020949824  0.036975677  0.079145353 
  552000   -1798301.6    10549.972   -67.228363    76.914057    88.813394    81.150246    1398.4328  0.076064658  0.073187275    0.1018759   0.25112784  0.020859232  0.020340094  0.035916343  0.077115669 
  553000   -1798238.7    10575.057    405.59483    76.914057    88.813394    81.150246    1401.7579  0.077008924  0.073261693   0.10312824   0.25339885  0.022039069  0.020650929  0.036099717  0.078789715 
  554000   -1798297.8    10572.562   -171.24077    76.914057    88.813394    81.150246    1401.4272  0.076077328  0.074194091   0.10342326   0.25369468  0.021361836  0.021198205  0.036132882  0.078692923 
  555000   -1798266.7    10585.712    492.81544    76.914057    88.813394    81.150246    1403.1703  0.076324616   0.07345201   0.10244181   0.25221844  0.020636955  0.020412813  0.035699333  0.076749101 
  556000     -1798287    10557.724   -71.736953    76.914057    88.813394    81.150246    1399.4604  0.076760062  0.073394542    0.1037958   0.25395041  0.021688859  0.020520736  0.036887094  0.079096689 
  557000   -1798253.7     10596.95    447.19945    76.914057    88.813394    81.150246    1404.6599  0.077169869  0.073105301   0.10441808   0.25469325  0.021364179  0.020463302  0.036632855  0.078460336 
  558000   -1798234.8    10535.116    242.69402    76.914057    88.813394    81.150246    1396.4637  0.076273161  0.073766275   0.10318666    0.2532261   0.02118802  0.020829504  0.036060771  0.078078294 
  559000   -1798249.6    10570.251    361.94436    76.914057    88.813394    81.150246    1401.1209  0.075982727  0.073855193   0.10212558    0.2519635  0.020581318  0.020334378  0.035791643  0.076707338 
  560000   -1798224.2    10559.483     545.8086    76.914057    88.813394    81.150246    1399.6936  0.076836711  0.073997418   0.10358885   0.25442298  0.021041951  0.021377852  0.037173476  0.079593278 
  561000   -1798262.4    10554.247    213.97731    76.914057    88.813394    81.150246    1398.9995  0.076042748  0.073690082   0.10344718   0.25318001  0.020827327  0.021200888   0.03628551  0.078313724 
  562000     -1798219    10551.381    634.96949    76.914057    88.813394    81.150246    1398.6196   0.07646091  0.073038922   0.10318511   0.25268494  0.021142773  0.020604296  0.036638318  0.078385387 
  563000   -1798241.9    10616.249    371.97727    76.914057    88.813394    81.150246     1407.218  0.076708461  0.073879254   0.10486191   0.25544963  0.021170507  0.020585314  0.037282646  0.079038468 
  564000   -1798302.5    10539.541    168.64216    76.914057    88.813394    81.150246    1397.0502  0.077530677  0.073612489   0.10434956   0.25549273  0.021280358  0.020512315  0.035928362  0.077721035 
  565000   -1798341.1    10608.643   -355.39687    76.914057    88.813394    81.150246    1406.2099  0.076948002  0.074796906   0.10437073   0.25611564   0.02089752  0.020597485  0.036165505   0.07766051 
  566000   -1798346.5    10551.507   -72.034241    76.914057    88.813394    81.150246    1398.6364  0.077343652  0.073559577   0.10544623   0.25634946  0.021082433  0.020469892  0.036726774  0.078279099 
  567000   -1798275.5    10538.231    73.638797    76.914057    88.813394    81.150246    1396.8766  0.076752034  0.073366132   0.10329218   0.25341035  0.020749197  0.020487743  0.036012505  0.077249445 
  568000   -1798255.8    10542.949   -30.802473    76.914057    88.813394    81.150246    1397.5019  0.076945963    0.0744635   0.10372056   0.25513002  0.020677119  0.020612368  0.036032403  0.077321891 
  569000   -1798226.4    10561.188    277.21362    76.914057    88.813394    81.150246    1399.9196  0.076995078  0.074348352   0.10503341   0.25637684  0.020575047   0.02124652  0.036360815  0.078182382 
  570000   -1798195.2    10544.048    236.99045    76.914057    88.813394    81.150246    1397.6476  0.076946996  0.074315724   0.10540991   0.25667263  0.020631724  0.021049685  0.036881864  0.078563273 
  571000   -1798190.5    10529.948    462.97637    76.914057    88.813394    81.150246    1395.7786  0.077211275  0.074302981   0.10545662   0.25697088  0.021336219  0.020915399  0.036248592   0.07850021 
  572000   -1798217.2    10616.131    591.00981    76.914057    88.813394    81.150246    1407.2024  0.077170444  0.073635767   0.10591228   0.25671849  0.021013076  0.020824964     0.036302   0.07814004 
  573000   -1798233.3    10543.233    46.891566    76.914057    88.813394    81.150246    1397.5395  0.077153941  0.073313208   0.10445772   0.25492487  0.020845582  0.020836945  0.036649896  0.078332423 
  574000   -1798232.7     10481.99    513.90162    76.914057    88.813394    81.150246    1389.4216  0.077372735  0.073426625   0.10461709   0.25541645  0.021156808  0.020556234  0.035966646  0.077679688 
  575000   -1798271.1    10581.313   -382.74392    76.914057    88.813394    81.150246    1402.5872  0.077163363   0.07491684   0.10534916   0.25742937  0.020470928  0.020898735  0.036018792  0.077388455 
  576000   -1798294.8    10560.388     -270.686    76.914057    88.813394    81.150246    1399.8135  0.076860246  0.073656321   0.10430029   0.25481685  0.020952069  0.020785972  0.035445399   0.07718344 
  577000   -1798159.1    10580.285    963.80087    76.914057    88.813394    81.150246     1402.451   0.07833355  0.074192799   0.10640709   0.25893344  0.021828382  0.021096686  0.036609849  0.079534917 
  578000   -1798198.7    10577.247    203.86307    76.914057    88.813394    81.150246    1402.0483  0.077422235  0.075303763   0.10531532   0.25804132  0.021284387  0.021118803  0.035728869  0.078132059 
  579000   -1798216.4    10555.561    411.96038    76.914057    88.813394    81.150246    1399.1737  0.077320792  0.074374976   0.10613022   0.25782599  0.021642749   0.02049776  0.037172478  0.079312988 
  580000   -1798239.1     10600.06    262.47189    76.914057    88.813394    81.150246    1405.0721  0.076864753  0.074279644   0.10370392   0.25484832  0.021063436  0.021089993  0.036200773  0.078354203 
  581000   -1798246.3    10509.693     164.8683    76.914057    88.813394    81.150246    1393.0937  0.077068653  0.074390119   0.10511047   0.25656924   0.02126685  0.019996161  0.036727453  0.077990464 
  582000   -1798251.3     10519.18    71.567959    76.914057    88.813394    81.150246    1394.3512  0.077484772  0.075055734   0.10427813   0.25681863  0.021362634  0.020821414   0.03634202  0.078526068 
  583000   -1798240.9     10539.38    507.97696    76.914057    88.813394    81.150246    1397.0288  0.076638699  0.073949351   0.10565766   0.25624571   0.02134622  0.020445991  0.036497184  0.078289395 
  584000   -1798214.8    10572.944    907.96026    76.914057    88.813394    81.150246    1401.4778  0.077842517  0.074547883   0.10584386   0.25823426  0.021584709  0.020544472  0.036990243  0.079119423 
  585000   -1798241.9     10582.63    404.85858    76.914057    88.813394    81.150246    1402.7618  0.078470173  0.075274114   0.10541011   0.25915439  0.022134015  0.020979092  0.036571204  0.079684311 
  586000   -1798301.7    10489.454       236.42    76.914057    88.813394    81.150246     1390.411  0.077648442  0.073858757    0.1046664    0.2561736  0.021429958  0.020463773   0.03672455   0.07861828 
  587000   -1798258.8    10561.345    553.39591    76.914057    88.813394    81.150246    1399.9404  0.076966495  0.074320803   0.10503218   0.25631948  0.020987785  0.020375825  0.036646014  0.078009625 
  588000   -1798239.9    10550.176    613.09229    76.914057    88.813394    81.150246    1398.4598  0.076758703  0.074633079   0.10593024   0.25732203  0.020968041  0.020535605  0.037050355  0.078554001 
  589000   -1798283.7    10575.571    46.563312    76.914057    88.813394    81.150246    1401.8261  0.077966396  0.074911926   0.10595252   0.25883084  0.021320371  0.020271007  0.036012529  0.077603908 
  590000   -1798281.7     10616.45    340.83596    76.914057    88.813394    81.150246    1407.2448  0.077366506  0.074546532   0.10587522   0.25778825  0.021631162  0.020731164  0.036197065  0.078559391 
  591000   -1798279.3    10548.956      482.025    76.914057    88.813394    81.150246    1398.2981  0.078716962  0.074042687    0.1047538   0.25751345  0.021670488  0.020425731  0.036793978  0.078890197 
  592000   -1798231.8    10538.567    215.58116    76.914057    88.813394    81.150246    1396.9212  0.077914728  0.074839091   0.10522296   0.25797678  0.021237532  0.020650075  0.036490423  0.078378029 
  593000     -1798301     10618.28   -150.87047    76.914057    88.813394    81.150246    1407.4874  0.077324105  0.073990587   0.10379344   0.25510813  0.020754082  0.020449073  0.035499754  0.076702909 
  594000   -1798183.3    10571.366    479.34479    76.914057    88.813394    81.150246    1401.2687   0.07723793  0.074654828   0.10504837   0.25694113  0.020641931  0.020117237   0.03714349  0.077902658 
  595000   -1798272.3    10579.617    12.912127    76.914057    88.813394    81.150246    1402.3624  0.078207618  0.074606671    0.1060403   0.25885459  0.021326312  0.020825069    0.0363004  0.078451781 
  596000   -1798195.7    10590.719     352.4139    76.914057    88.813394    81.150246     1403.834  0.078821769  0.074197052   0.10699189   0.26001071  0.021591889  0.019823122  0.037611437  0.079026447 
  597000     -1798276    10505.093   -127.07964    76.914057    88.813394    81.150246     1392.484  0.078052277  0.075580437   0.10672499    0.2603577   0.02170088   0.02128205  0.037129191  0.080112121 
  598000   -1798221.3    10493.565    188.82295    76.914057    88.813394    81.150246    1390.9559  0.077949815  0.075303218   0.10532758   0.25858061  0.021382276  0.021008263  0.036135122  0.078525661 
  599000   -1798257.9    10550.658     345.5449    76.914057    88.813394    81.150246    1398.5238  0.078250539  0.075513263   0.10677283   0.26053663   0.02127269  0.020956275  0.036371852  0.078600816 
  600000   -1798317.1    10596.656    44.316062    76.914057    88.813394    81.150246    1404.6209  0.078877048  0.075343196   0.10721211   0.26143236   0.02149878  0.020585635   0.03643862  0.078523035 
  601000   -1798241.5    10581.595    548.95452    76.914057    88.813394    81.150246    1402.6246  0.078158697  0.074419021   0.10558368    0.2581614  0.021713082  0.020229775   0.03571631  0.077659168 
  602000   -1798219.1     10597.97    428.45665    76.914057    88.813394    81.150246    1404.7952  0.077734897  0.075235033   0.10622585   0.25919578  0.021300818  0.020928323  0.036095152  0.078324293 
  603000   -1798236.4    10584.819   -178.53178    76.914057    88.813394    81.150246     1403.052  0.077795753  0.074972371   0.10515965   0.25792778   0.02138824  0.020252138  0.035495936  0.077136315 
  604000   -1798209.7    10523.813    766.08505    76.914057    88.813394    81.150246    1394.9654  0.077761889   0.07505837    0.1046551   0.25747536  0.021537124  0.020512249  0.035563879  0.077613252 
  605000   -1798249.6    10566.199    126.43457    76.914057    88.813394    81.150246    1400.5839  0.077997932  0.075215003   0.10750981   0.26072274  0.021282106  0.020462691  0.036803345  0.078548142 
  606000   -1798242.5    10535.825    287.71989    76.914057    88.813394    81.150246    1396.5576  0.078135221  0.075614869   0.10702739   0.26077748  0.021525317  0.020930296   0.03659567  0.079051284 
  607000   -1798184.2    10539.933    549.10796    76.914057    88.813394    81.150246    1397.1021  0.078808912  0.075939038   0.10706117   0.26180912   0.02091258  0.020860906  0.037023564   0.07879705 
  608000   -1798252.8    10595.082    140.30795    76.914057    88.813394    81.150246    1404.4123  0.078504766  0.075014371   0.10614376    0.2596629  0.020996434  0.020668429  0.037473488  0.079138352 
  609000   -1798239.3    10555.051    509.15012    76.914057    88.813394    81.150246    1399.1061   0.07834065  0.075725471   0.10665543   0.26072155  0.021357517  0.020993098  0.035797278  0.078147893 
  610000   -1798179.9    10550.881    587.61709    76.914057    88.813394    81.150246    1398.5534  0.077944254  0.076144548   0.10597701   0.26006581  0.020955066  0.021309898  0.037021445   0.07928641 
  611000   -1798191.2    10518.693    373.61541    76.914057    88.813394    81.150246    1394.2868  0.078837519  0.074697893   0.10544981   0.25898523  0.021312027  0.020280106  0.036147682  0.077739815 
  612000   -1798291.4    10524.054     202.2614    76.914057    88.813394    81.150246    1394.9973  0.077396225  0.074606742   0.10487341   0.25687638  0.021008939  0.020397942  0.035674365  0.077081247 
  613000   -1798296.8    10571.318   -78.690232    76.914057    88.813394    81.150246    1401.2623  0.078115289  0.076053837   0.10592302   0.26009215  0.021246326  0.020756927  0.036011772  0.078015025 
  614000   -1798278.2    10643.435    188.44322    76.914057    88.813394    81.150246    1410.8217  0.078153475  0.076014133   0.10673805   0.26090566  0.021271665   0.02041084  0.036893146   0.07857565 
  615000   -1798201.9    10529.451    210.71334    76.914057    88.813394    81.150246    1395.7127  0.079004543  0.076712193   0.10647792   0.26219465  0.020791447  0.020725284  0.036967622  0.078484353 
  616000   -1798277.2    10596.922    556.64432    76.914057    88.813394    81.150246    1404.6562  0.078323646   0.07628115   0.10683807   0.26144286  0.021101302  0.020387596  0.036670027  0.078158924 
  617000   -1798267.9    10610.017    552.13588    76.914057    88.813394    81.150246    1406.3921  0.077554938  0.075777378   0.10670675   0.26003906  0.020724851  0.020353649  0.036585171  0.077663672 
  618000   -1798161.5    10599.835    238.78298    76.914057    88.813394    81.150246    1405.0424  0.078489513  0.076658576   0.10627065   0.26141874  0.020857567  0.020729889  0.036596865  0.078184321 
  619000   -1798233.8    10572.806     218.8782    76.914057    88.813394    81.150246    1401.4596  0.079607765  0.076592603   0.10687553    0.2630759  0.021252272  0.020598993  0.036208451  0.078059716 
  620000   -1798243.4    10553.696    20.040321    76.914057    88.813394    81.150246    1398.9265  0.078869272  0.076336737   0.10598259    0.2611886  0.020793196  0.019811629  0.035915368  0.076520193 
  621000   -1798255.9    10587.038    335.64237    76.914057    88.813394    81.150246    1403.3461  0.079003766  0.076375523   0.10600523   0.26138452  0.020868794  0.020463142   0.03604461  0.077376546 
  622000     -1798281    10513.905   -221.33374    76.914057    88.813394    81.150246     1393.652  0.079099232  0.076278952   0.10695032    0.2623285  0.020687729  0.020887436  0.036617633  0.078192798 
  623000   -1798211.4    10586.048    726.43724    76.914057    88.813394    81.150246    1403.2149  0.079952645  0.076552688   0.10672912   0.26323446  0.020767102  0.020522151  0.036004149  0.077293402 
  624000   -1798274.1    10560.592   -388.97888    76.914057    88.813394    81.150246    1399.8405  0.079632542  0.076659701   0.10730955   0.26360179  0.020779239   0.02035379  0.036168096  0.077301125 
  625000   -1798232.9    10533.437    459.53426    76.914057    88.813394    81.150246    1396.2411  0.080019934  0.076244062   0.10623481   0.26249881  0.021348556  0.020296631  0.035556781  0.077201968 
  626000     -1798232    10492.968   -3.3972595    76.914057    88.813394    81.150246    1390.8768  0.079042678  0.076400548   0.10570374   0.26114697  0.020492267  0.020509607  0.035946295  0.076948169 
  627000   -1798236.6    10546.286    133.92636    76.914057    88.813394    81.150246    1397.9442  0.080120104  0.076377801   0.10702551   0.26352342  0.021215759  0.020629633  0.036967328   0.07881272 
  628000   -1798249.1    10616.032    482.63441    76.914057    88.813394    81.150246    1407.1893  0.079598521  0.075961958   0.10696295   0.26252343  0.021038331  0.020517894  0.035625976    0.0771822 
  629000   -1798190.1    10591.645    429.35541    76.914057    88.813394    81.150246    1403.9567  0.079864676  0.076447397   0.10709657   0.26340864  0.022056188  0.021028594   0.03631121  0.079395992 
  630000   -1798264.4    10559.927     392.4775    76.914057    88.813394    81.150246    1399.7524  0.080243992  0.076859302   0.10699569   0.26409898  0.021698593  0.020971559    0.0358954  0.078565552 
  631000   -1798263.8    10584.167    140.81351    76.914057    88.813394    81.150246    1402.9655  0.080495674  0.076006294   0.10759998   0.26410195  0.021803662  0.020617583  0.036794009  0.079215254 
  632000   -1798256.4    10549.527    460.23341    76.914057    88.813394    81.150246    1398.3738  0.080560763  0.076358975   0.10684274   0.26376248  0.022012368  0.020893147  0.036470283  0.079375798 
  633000   -1798234.6     10598.98    525.49665    76.914057    88.813394    81.150246     1404.929  0.080484094  0.076474168   0.10739914    0.2643574  0.021921725  0.020729335  0.036813424  0.079464484 
  634000   -1798206.6    10538.993    691.14703    76.914057    88.813394    81.150246    1396.9776  0.079957576  0.076624132   0.10659523   0.26317694  0.022192248  0.020727314  0.036569135  0.079488697 
  635000   -1798271.4    10552.292   -4.1750241    76.914057    88.813394    81.150246    1398.7403  0.080053998  0.076161269   0.10660068   0.26281595  0.021695276  0.020873615  0.037208935  0.079777826 
  636000   -1798304.9    10585.911   -84.774439    76.914057    88.813394    81.150246    1403.1967  0.079708771  0.076561963   0.10663099   0.26290172  0.021931133  0.020705929  0.037108788   0.07974585 
  637000   -1798206.3    10508.457    210.32433    76.914057    88.813394    81.150246    1392.9299  0.079871303  0.076633749   0.10712199   0.26362704  0.021687993  0.020857304  0.036999238  0.079544535 
  638000   -1798253.4    10551.552     421.9277    76.914057    88.813394    81.150246    1398.6423  0.080603279  0.076618303   0.10737053   0.26459211  0.022199778   0.02034661  0.037500895  0.080047283 
  639000   -1798304.8    10544.775    258.04574    76.914057    88.813394    81.150246     1397.744   0.07925005  0.076588051   0.10917516   0.26501326   0.02146771  0.020474075  0.037961372  0.079903157 
  640000     -1798277    10511.688   -69.430855    76.914057    88.813394    81.150246    1393.3582   0.07946952  0.076278202   0.10710228   0.26285001   0.02135391  0.020881419  0.036595059  0.078830388 
  641000   -1798256.7    10604.614    262.07992    76.914057    88.813394    81.150246    1405.6759  0.081114464  0.076116609   0.10769332   0.26492439  0.022401969  0.020232907  0.036397738  0.079032613 
  642000   -1798326.8    10560.757   -238.52061    76.914057    88.813394    81.150246    1399.8624  0.078949809  0.076890622   0.10677345   0.26261388  0.021330679  0.021234211  0.037366496  0.079931386 
  643000     -1798329    10552.139   -382.66886    76.914057    88.813394    81.150246    1398.7201  0.079985115  0.075697876   0.10852753   0.26421052  0.021458396  0.020839841  0.037780673   0.08007891 
  644000   -1798228.6    10595.861    480.63847    76.914057    88.813394    81.150246    1404.5156  0.079854043  0.076100861   0.10699915   0.26295406   0.02127483  0.020427671  0.037153826  0.078856327 
  645000   -1798296.6     10532.06   -330.85975    76.914057    88.813394    81.150246    1396.0586  0.079644963  0.075400533   0.10782423   0.26286973  0.021277396  0.020280671  0.038426919  0.079984986 
  646000   -1798275.9    10500.217    357.97954    76.914057    88.813394    81.150246    1391.8377  0.080479186  0.076693254   0.10789571   0.26506815  0.022114567  0.020810542  0.037420966  0.080346075 
  647000   -1798239.9    10503.934    552.91308    76.914057    88.813394    81.150246    1392.3304  0.079875483  0.075687698   0.10711014   0.26267332  0.021459127  0.020230102  0.038530369  0.080219598 
  648000     -1798305    10539.899   -264.35948    76.914057    88.813394    81.150246    1397.0976  0.080691975  0.076221255   0.10793599   0.26484922  0.021573255  0.020782059  0.037312518  0.079667831 
  649000   -1798233.8    10532.994    182.60962    76.914057    88.813394    81.150246    1396.1824  0.079916746  0.077412234   0.10774358   0.26507257  0.021629228   0.02102196  0.037865475  0.080516664 
  650000   -1798274.3    10574.954   -39.394529    76.914057    88.813394    81.150246    1401.7443  0.080603937  0.075985523   0.10818923   0.26477869  0.021899296  0.020205681  0.038620738  0.080725716 
  651000   -1798260.3    10609.489    300.50772    76.914057    88.813394    81.150246     1406.322   0.07904332  0.076648834   0.10867798   0.26437014  0.021608044  0.020786829  0.038407604  0.080802478 
  652000   -1798261.5    10531.903   -121.31764    76.914057    88.813394    81.150246    1396.0377  0.080256877  0.077161499   0.10739559   0.26481396  0.021850862  0.020488921  0.038090809  0.080430593 
  653000     -1798232    10507.164    170.98532    76.914057    88.813394    81.150246    1392.7586  0.079747572  0.077381107   0.10727734   0.26440602  0.022391587  0.020810006  0.038498167   0.08169976 
  654000   -1798258.5    10536.007    204.99339    76.914057    88.813394    81.150246    1396.5818  0.079383069   0.07716152     0.107878   0.26442259  0.021599147  0.020811814  0.037596167  0.080007128 
  655000   -1798279.7    10575.315    419.36932    76.914057    88.813394    81.150246    1401.7922  0.079112706  0.076165242   0.10739343   0.26267138  0.021032648  0.020366054  0.038131993  0.079530695 
  656000   -1798250.3    10532.365   -173.51261    76.914057    88.813394    81.150246    1396.0991  0.079610467  0.077261255   0.10766111   0.26453284  0.021157038  0.020884231  0.038544971   0.08058624 
  657000   -1798217.6    10588.614     810.0147    76.914057    88.813394    81.150246     1403.555  0.079857833  0.076811805    0.1075931   0.26426274  0.021710056  0.021131603  0.038991663  0.081833322 
  658000   -1798263.8    10603.681    541.37812    76.914057    88.813394    81.150246    1405.5521  0.081387807  0.077073909   0.10808382   0.26654553  0.021922626  0.021512268  0.039131356  0.082566249 
  659000   -1798290.5    10607.085    240.78388    76.914057    88.813394    81.150246    1406.0034  0.080986165  0.077509623   0.10835063   0.26684642  0.021495026  0.020883534  0.038218961  0.080597521 
  660000   -1798283.4    10660.422    347.89806    76.914057    88.813394    81.150246    1413.0733  0.079913123   0.07738213   0.10759883   0.26489409  0.021646597  0.020989757  0.038797213  0.081433567 
  661000   -1798254.7      10590.3    188.92109    76.914057    88.813394    81.150246    1403.7785  0.080364956   0.07807758   0.10733895   0.26578148  0.021857941  0.021180811  0.039253054  0.082291806 
  662000   -1798193.1    10599.598    847.52257    76.914057    88.813394    81.150246    1405.0109  0.079051631  0.075937227   0.10764701   0.26263587  0.021278035  0.020139342  0.039201339  0.080618715 
  663000   -1798252.1    10628.086    588.24653    76.914057    88.813394    81.150246    1408.7872  0.081056268  0.077669972   0.10853698   0.26726322  0.022355844  0.020945044  0.038089408  0.081390296 
  664000   -1798215.8    10570.009    266.30325    76.914057    88.813394    81.150246    1401.0888  0.079691873  0.077914645   0.10748272   0.26508924  0.021162807  0.020951792  0.038556718  0.080671317 
  665000   -1798311.6    10493.427   -466.84468    76.914057    88.813394    81.150246    1390.9376   0.07930443  0.077920272   0.10775494   0.26497964   0.02099069   0.02105338  0.038070578  0.080114648 
  666000   -1798269.9    10595.871    223.05542    76.914057    88.813394    81.150246    1404.5169  0.080434488  0.077327032   0.10809275   0.26585427   0.02185514  0.020478355  0.038460113  0.080793607 
  667000     -1798246    10591.423     263.9044    76.914057    88.813394    81.150246    1403.9273  0.080391137  0.077532872   0.10885321   0.26677722  0.021591356  0.020798718  0.038463098  0.080853172 
  668000   -1798221.5     10606.21    418.25236    76.914057    88.813394    81.150246    1405.8874  0.080462653  0.077843101   0.10803287   0.26633862  0.021324155  0.020863935  0.038601202  0.080789292 
  669000   -1798217.5     10627.47      816.526    76.914057    88.813394    81.150246    1408.7054  0.079406829  0.077364359   0.10839808   0.26516927  0.021192733  0.020404373  0.038832346  0.080429452 
  670000   -1798294.5    10612.244    234.65526    76.914057    88.813394    81.150246    1406.6872  0.079931855  0.078566578   0.10982762   0.26832605   0.02167423   0.02116088  0.038836524  0.081671634 
  671000   -1798237.6     10582.51    695.16748    76.914057    88.813394    81.150246    1402.7459  0.080383231  0.078835984   0.10929505   0.26851426  0.021802031  0.020896163  0.038278326  0.080976519 
  672000     -1798247    10533.107     49.42206    76.914057    88.813394    81.150246    1396.1974  0.080828503  0.077283323   0.10862525   0.26673708  0.021737257  0.020341671  0.038341965  0.080420893 
  673000   -1798232.4    10567.578   -7.3727972    76.914057    88.813394    81.150246    1400.7666  0.079933687  0.078376491   0.10943471   0.26774489  0.020933731  0.020466701   0.03840748  0.079807913 
  674000   -1798227.9     10529.83     488.8864    76.914057    88.813394    81.150246     1395.763  0.080099918  0.078285352   0.10916848   0.26755375  0.021450491  0.021131483  0.038990702  0.081572677 
  675000   -1798293.9    10556.912    142.89343    76.914057    88.813394    81.150246    1399.3528  0.080661244    0.0787853   0.10865288   0.26809942  0.021882369  0.020891271  0.037942943  0.080716583 
  676000   -1798263.3    10545.707    363.55992    76.914057    88.813394    81.150246    1397.8676  0.081457034  0.078397547   0.10984246   0.26969704  0.021842258  0.020446076  0.038294759  0.080583093 
  677000   -1798170.9    10494.295    702.18302    76.914057    88.813394    81.150246    1391.0527  0.081046646  0.078301431   0.10992684   0.26927492  0.021694737  0.020763889  0.039629587  0.082088213 
  678000   -1798330.5    10489.121   -426.52515    76.914057    88.813394    81.150246    1390.3669  0.080352847  0.077399341   0.10922618   0.26697837  0.021252101  0.020466205  0.039233239  0.080951545 
  679000   -1798327.7    10521.747   -392.62681    76.914057    88.813394    81.150246    1394.6916   0.08056359  0.077271474   0.10829938   0.26613445  0.021446586  0.020449693   0.03788609  0.079782369 
  680000   -1798209.7    10549.455    798.51032    76.914057    88.813394    81.150246    1398.3643  0.081053418  0.079057992   0.10895008   0.26906149  0.021897083  0.020505542  0.037873918  0.080276543 
  681000   -1798254.2    10586.536    495.11957    76.914057    88.813394    81.150246    1403.2795  0.081079059  0.078737051   0.10891511   0.26873122  0.021436477   0.02114396  0.038198515  0.080778952 
  682000   -1798262.5    10561.583     662.0257    76.914057    88.813394    81.150246     1399.972  0.081376355  0.078334151   0.10871836   0.26842887  0.021833824  0.020544166  0.038945564  0.081323553 
  683000   -1798205.7    10556.069    804.28733    76.914057    88.813394    81.150246     1399.241  0.080538272  0.077818748   0.10760703   0.26596405  0.021683668  0.020310714  0.038733597   0.08072798 
  684000   -1798263.1    10553.327    120.70735    76.914057    88.813394    81.150246    1398.8776  0.081497324  0.078149231   0.10886391   0.26851047  0.021894392  0.020565586  0.039147105  0.081607084 
  685000   -1798297.3    10546.621    314.78543    76.914057    88.813394    81.150246    1397.9886  0.079865311  0.078027146   0.10936678   0.26725923  0.021677349  0.020857821  0.038570204  0.081105375 
  686000   -1798275.2    10552.188    280.91135    76.914057    88.813394    81.150246    1398.7266  0.080337518  0.078405418   0.10923514   0.26797808  0.021271847  0.020350137   0.03833544  0.079957424 
  687000   -1798231.5    10576.373    495.08817    76.914057    88.813394    81.150246    1401.9323  0.081261572  0.078539158   0.10894499   0.26874572  0.021701547  0.020812775  0.039533497   0.08204782 
  688000   -1798296.2    10603.585    190.73728    76.914057    88.813394    81.150246    1405.5394  0.079756063  0.077999578   0.10865971   0.26641535  0.021596931  0.020208594  0.039937177  0.081742702 
  689000   -1798242.5    10567.013    452.42602    76.914057    88.813394    81.150246    1400.6917   0.08219424  0.078086265   0.11070511   0.27098562  0.022468513  0.021202516  0.041126721   0.08479775 
  690000     -1798221    10607.641    612.52671    76.914057    88.813394    81.150246    1406.0771  0.080462106  0.078725971   0.10989088   0.26907896  0.021435852   0.02086598   0.04019216  0.082493992 
  691000   -1798277.5    10565.363    157.60645    76.914057    88.813394    81.150246    1400.4729  0.080924269  0.077575584   0.10915675    0.2676566  0.021591687  0.020009708  0.040439842  0.082041237 
  692000     -1798149    10621.274    1328.3453    76.914057    88.813394    81.150246    1407.8842  0.080782001  0.079148528   0.11183143   0.27176196  0.021621187  0.021243993  0.040350389  0.083215569 
  693000   -1798320.1    10557.766   -437.87419    76.914057    88.813394    81.150246     1399.466  0.080975115  0.078290101    0.1084404   0.26770562  0.021793682   0.01996596  0.039078861  0.080838504 
  694000   -1798265.5    10529.267   -31.442961    76.914057    88.813394    81.150246    1395.6883  0.080797121  0.079144209   0.11037623   0.27031756  0.022132317  0.021364585  0.040337283  0.083834185 
  695000   -1798250.9    10588.423    358.21608    76.914057    88.813394    81.150246    1403.5297  0.080184016  0.078334387   0.11032638   0.26884478  0.021342603  0.020494456  0.040091136  0.081928194 
  696000   -1798191.4    10552.596      580.183    76.914057    88.813394    81.150246    1398.7807  0.081201854  0.078354127   0.11061197   0.27016795  0.021859355  0.021039211  0.040408919  0.083307485 
  697000   -1798230.7    10533.627    902.99314    76.914057    88.813394    81.150246    1396.2662  0.080185084  0.077995576    0.1086947   0.26687537  0.021222467   0.02042512  0.039239747  0.080887333 
  698000   -1798227.6    10590.022    956.94993    76.914057    88.813394    81.150246    1403.7416  0.081367101  0.079076017   0.11154058    0.2719837  0.021729371  0.020831615  0.039407271  0.081968256 
  699000   -1798297.5    10538.072   -92.092296    76.914057    88.813394    81.150246    1396.8555  0.080997935  0.079297529   0.10941852   0.26971398  0.021663801  0.020508922  0.038571955  0.080744677 
  700000   -1798300.9    10535.695    69.282568    76.914057    88.813394    81.150246    1396.5404  0.080480668  0.078516727   0.10982379   0.26882119  0.021301327  0.020466598  0.039381856  0.081149781 
  701000   -1798294.7    10543.419   -89.164511    76.914057    88.813394    81.150246    1397.5643  0.081629736  0.078519056    0.1101321   0.27028089  0.022361997  0.020768967  0.039417045  0.082548009 
  702000   -1798231.5    10567.015    758.12188    76.914057    88.813394    81.150246    1400.6919  0.081590992  0.078632083   0.10970629   0.26992937  0.021696526  0.020482251  0.039725008  0.081903784 
  703000   -1798197.2    10537.239    617.92207    76.914057    88.813394    81.150246    1396.7451     0.081719  0.078333314   0.10977443   0.26982674  0.021881438  0.020244949  0.039612753  0.081739139 
  704000   -1798267.2    10533.096    341.11392    76.914057    88.813394    81.150246    1396.1958  0.081621749  0.079290386   0.11022951   0.27114164  0.021758462  0.020785979  0.038811032  0.081355474 
  705000   -1798241.9    10539.279    386.13455    76.914057    88.813394    81.150246    1397.0155  0.080422057  0.078993236   0.11074437   0.27015967  0.021057417  0.020797884  0.038883612  0.080738914 
  706000   -1798243.9    10587.301    563.06479    76.914057    88.813394    81.150246    1403.3809  0.081072354   0.07969155   0.11127157   0.27203548  0.021843237  0.020409605  0.039567555  0.081820396 
  707000   -1798356.1    10590.174   -117.87761    76.914057    88.813394    81.150246    1403.7618  0.082318996  0.079836849   0.10960181   0.27175765  0.021588301  0.020682777  0.039140932  0.081412009 
  708000   -1798198.4     10599.64    420.84524    76.914057    88.813394    81.150246    1405.0165  0.082263137  0.079763731   0.11009759   0.27212446  0.022163712  0.020563752  0.039937284  0.082664748 
  709000   -1798297.1    10549.819    209.65817    76.914057    88.813394    81.150246    1398.4126  0.081566492  0.079984024   0.10904633   0.27059685  0.021959508  0.021817917  0.039445264   0.08322269 
  710000   -1798276.9    10603.795    663.15619    76.914057    88.813394    81.150246    1405.5672  0.081111836  0.079099914   0.10945344   0.26966519  0.021337731  0.020731092   0.04021425  0.082283073 
  711000   -1798267.9    10569.678    196.43384    76.914057    88.813394    81.150246     1401.045  0.080761519  0.079206923   0.11036656   0.27033501  0.021661651  0.020605526  0.040321375  0.082588553 
  712000   -1798276.7    10558.385    445.69356    76.914057    88.813394    81.150246     1399.548  0.081876119  0.078220601   0.10905394   0.26915066  0.022149781  0.020609829  0.039860197  0.082619806 
  713000   -1798198.8     10578.75    658.29404    76.914057    88.813394    81.150246    1402.2474  0.083054288  0.078750155   0.11044507   0.27224951  0.022437522  0.020425901  0.040092994  0.082956418 
  714000   -1798240.5    10548.969    706.59013    76.914057    88.813394    81.150246    1398.2999  0.081745559  0.078811682   0.11067293   0.27123017  0.021431653  0.021008227  0.040143604  0.082583484 
  715000   -1798221.4    10557.079    766.93959    76.914057    88.813394    81.150246     1399.375  0.081439375  0.079095261   0.11013663   0.27067127  0.021405872  0.021030479  0.040291467  0.082727818 
  716000   -1798258.4    10617.148    534.08665    76.914057    88.813394    81.150246    1407.3372  0.081978107  0.080312026   0.11166932   0.27395946  0.021585156  0.021285098  0.039647583  0.082517837 
  717000   -1798250.9    10552.856    212.01499    76.914057    88.813394    81.150246    1398.8151  0.083240251  0.078935161   0.10965535   0.27183076  0.022272896  0.020583324  0.039350849  0.082207069 
  718000   -1798220.7    10565.822    660.31042    76.914057    88.813394    81.150246    1400.5338  0.083033545  0.078266739   0.10988515   0.27118543  0.022316595   0.02022944  0.040168311  0.082714347 
  719000   -1798216.9    10590.187    583.33935    76.914057    88.813394    81.150246    1403.7634  0.082077548  0.079796444   0.11117288   0.27304687  0.021378826  0.020906481  0.040049867  0.082335174 
  720000   -1798260.9    10578.528    488.62691    76.914057    88.813394    81.150246     1402.218   0.08207586  0.079472561   0.10968066   0.27122908  0.022019935  0.020565452  0.040419165  0.083004552 
  721000     -1798317    10571.588    -17.15547    76.914057    88.813394    81.150246    1401.2981  0.082304391   0.07937324   0.10947995   0.27115758  0.021296761  0.020539438  0.038895332  0.080731531 
  722000     -1798289    10543.216    387.62326    76.914057    88.813394    81.150246    1397.5373  0.082686306   0.07966609   0.10996308   0.27231547  0.021361273  0.020619748    0.0387336  0.080714622 
  723000     -1798291    10541.796   -403.70429    76.914057    88.813394    81.150246    1397.3491  0.083529557  0.080230211   0.11061292   0.27437269  0.021889965  0.020346867  0.039583653  0.081820485 
  724000   -1798299.7    10581.513    522.50057    76.914057    88.813394    81.150246    1402.6137  0.082880683  0.079771581   0.11111496   0.27376722  0.022189255  0.020750683  0.039753651   0.08269359 
  725000   -1798286.3    10514.089   -341.51452    76.914057    88.813394    81.150246    1393.6765  0.082765393  0.079475078   0.11059862   0.27283909  0.021842407  0.020582747  0.039198511  0.081623665 
  726000   -1798227.2    10563.911    317.57988    76.914057    88.813394    81.150246    1400.2805  0.083987914  0.079213755   0.11158321   0.27478488  0.021594721   0.02020605  0.038934079   0.08073485 
  727000   -1798286.5    10564.674    138.67996    76.914057    88.813394    81.150246    1400.3817  0.084084645  0.080652229   0.11133626   0.27607313  0.021856621  0.020887858  0.038774755  0.081519235 
  728000   -1798312.2    10629.374    413.78535    76.914057    88.813394    81.150246    1408.9578  0.084379523  0.079498625   0.11132289   0.27520104  0.022215434  0.020609557  0.039014349  0.081839341 
  729000   -1798165.3    10565.425    715.55874    76.914057    88.813394    81.150246    1400.4812  0.083931202  0.080201699    0.1116532    0.2757861  0.022077532  0.020476556   0.04002993  0.082584019 
  730000   -1798259.7    10509.539    263.85182    76.914057    88.813394    81.150246    1393.0733  0.084061485  0.080001087   0.11126224   0.27532481  0.022333219  0.020719674   0.04011328  0.083166172 
  731000   -1798230.1    10577.625    953.31086    76.914057    88.813394    81.150246    1402.0984  0.083672235  0.080126155   0.10970173   0.27350012  0.021805356  0.020766963  0.039548642  0.082120962 
  732000   -1798176.2    10489.652    372.12298    76.914057    88.813394    81.150246    1390.4372  0.083904771  0.079608314   0.11177563   0.27528871  0.021980566  0.020220056  0.039705338   0.08190596 
  733000   -1798247.1    10559.359    685.39761    76.914057    88.813394    81.150246    1399.6771   0.08364444  0.080228003   0.10968817   0.27356061  0.021892349  0.020662087  0.040248446  0.082802882 
  734000   -1798206.1    10495.768     649.4327    76.914057    88.813394    81.150246     1391.248  0.084025811  0.080654112   0.11041132   0.27509124  0.021898044  0.021012735  0.039629274  0.082540053 
  735000   -1798271.9    10567.596    93.342032    76.914057    88.813394    81.150246    1400.7689  0.083829533  0.080633597   0.11203241   0.27649554  0.021803977  0.020425811  0.039765371  0.081995159 
  736000   -1798284.8    10662.838    103.65328    76.914057    88.813394    81.150246    1413.3936  0.084981638   0.08112925   0.11032192   0.27643281  0.022557385   0.02096502  0.039002915   0.08252532 
  737000   -1798292.2    10520.691    627.17645    76.914057    88.813394    81.150246    1394.5515  0.083678156  0.081083685   0.11147682   0.27623866   0.02176847  0.021306329  0.040401922  0.083476721 
  738000   -1798225.6    10540.698    306.85626    76.914057    88.813394    81.150246    1397.2036  0.083911606  0.080596338   0.11153968   0.27604763  0.021258501  0.020311354  0.040418386  0.081988241 
  739000   -1798279.3    10543.311    15.117976    76.914057    88.813394    81.150246      1397.55  0.084143643  0.080504198   0.11178438   0.27643223  0.021994446  0.020626892  0.040855562    0.0834769 
  740000     -1798304    10592.459    78.165622    76.914057    88.813394    81.150246    1404.0647  0.083822548  0.081603457   0.11053064   0.27595665  0.022176694  0.021540608  0.040456769  0.084174071 
  741000   -1798270.5    10601.418    494.22156    76.914057    88.813394    81.150246    1405.2521  0.084212527  0.080603954   0.11112651   0.27594299   0.02211497  0.021125111  0.039540194  0.082780274 
  742000     -1798271    10606.921    310.84157    76.914057    88.813394    81.150246    1405.9817  0.083826322  0.081594402   0.11180605   0.27722677  0.021699354     0.020902  0.040352599  0.082953953 
  743000   -1798221.3    10542.186     593.7037    76.914057    88.813394    81.150246    1397.4008  0.084260929  0.082072528   0.11174077   0.27807423  0.022323606  0.021169863  0.041122365  0.084615833 
  744000   -1798336.3    10609.952    175.04996    76.914057    88.813394    81.150246    1406.3834  0.083315063  0.080711557   0.11157158    0.2755982  0.021756516  0.021029259  0.040347039  0.083132815 
  745000     -1798272    10481.084    172.22844    76.914057    88.813394    81.150246    1389.3015  0.084168859  0.081915845   0.11140008   0.27748479  0.021832069  0.020962533  0.040584344  0.083378946 
  746000   -1798257.4    10590.795    588.93227    76.914057    88.813394    81.150246    1403.8441  0.084684063  0.081246001   0.11105559   0.27698566  0.022679865  0.020850646  0.040953456  0.084483967 
  747000   -1798221.4    10519.599    73.213013    76.914057    88.813394    81.150246    1394.4068  0.083216856  0.080860708   0.11113189   0.27520945    0.0216942   0.02111642  0.039786682  0.082597302 
  748000   -1798238.3    10575.963    686.53355    76.914057    88.813394    81.150246     1401.878   0.08360197  0.080761581   0.11153875    0.2759023  0.021565051  0.020854674  0.040421826   0.08284155 
  749000   -1798287.3    10630.426    138.56962    76.914057    88.813394    81.150246    1409.0974  0.083782871  0.081720671    0.1117438   0.27724735  0.021696978  0.020711929  0.040844734   0.08325364 
  750000   -1798266.9    10580.423     824.7464    76.914057    88.813394    81.150246    1402.4692  0.084883576  0.081411361   0.11199063   0.27828557  0.022088019  0.021023295  0.041347931  0.084459245 
  751000   -1798229.8    10569.159    579.66175    76.914057    88.813394    81.150246    1400.9762  0.084990081   0.08170761   0.11195417   0.27865186  0.022712005  0.020876925  0.040439882  0.084028813 
  752000   -1798298.9    10521.711    105.40293    76.914057    88.813394    81.150246    1394.6867  0.083728094  0.082775681   0.11152916   0.27803294   0.02183933  0.021766288  0.040962383  0.084568001 
  753000     -1798249    10549.063    419.18744    76.914057    88.813394    81.150246    1398.3123  0.084086547  0.080768994   0.11134055   0.27619609  0.022030657  0.020873166  0.040508535  0.083412358 
  754000   -1798296.1    10556.742   -78.439841    76.914057    88.813394    81.150246    1399.3302  0.083761494  0.081795631   0.11136019   0.27691731  0.021221859  0.021417131  0.039992386  0.082631376 
  755000     -1798192     10504.38    543.73389    76.914057    88.813394    81.150246    1392.3895  0.084363183  0.081634078   0.11245195   0.27844921  0.022072933  0.020847328  0.040819808  0.083740069 
  756000     -1798219     10516.78    780.81584    76.914057    88.813394    81.150246    1394.0331  0.083974328  0.081306694   0.11244818    0.2777292  0.021682007  0.020438872   0.04085123  0.082972108 
  757000   -1798232.9    10558.176    713.48475    76.914057    88.813394    81.150246    1399.5203  0.084960519  0.082077001   0.11190939   0.27894691  0.021799523  0.020994927  0.040916638  0.083711089 
  758000   -1798276.1    10529.009   -48.157513    76.914057    88.813394    81.150246    1395.6541  0.084016539  0.081544995   0.11314882   0.27871036  0.022015679  0.021343595  0.041709551  0.085068825 
  759000     -1798289    10530.264    345.27411    76.914057    88.813394    81.150246    1395.8205  0.084816525  0.081931902    0.1119657   0.27871412  0.021847203  0.020794447  0.039964367  0.082606017 
  760000   -1798258.2     10578.96    510.66139    76.914057    88.813394    81.150246    1402.2753  0.085347897  0.081359742   0.11156766    0.2782753  0.022472503  0.020470514  0.040704379  0.083647396 
  761000   -1798220.1    10561.692     688.4152    76.914057    88.813394    81.150246    1399.9863  0.084245265  0.082148375    0.1127057   0.27909934  0.021995459  0.021022072   0.04106514  0.084082671 
  762000   -1798293.6    10562.826    475.64765    76.914057    88.813394    81.150246    1400.1368  0.084774967  0.081386796   0.11236439   0.27852615   0.02157706  0.020868637  0.041312766  0.083758463 
  763000   -1798266.6    10569.407    330.78606    76.914057    88.813394    81.150246     1401.009  0.083949053  0.081701685   0.11404534   0.27969608  0.021219686  0.020977948   0.04116097  0.083358604 
  764000   -1798310.2    10614.868    207.54568    76.914057    88.813394    81.150246     1407.035  0.085588792  0.081923806    0.1140704     0.281583  0.022413625  0.020863137  0.041625653  0.084902415 
  765000   -1798277.5    10567.955    374.34663    76.914057    88.813394    81.150246    1400.8165   0.08694762  0.083132309   0.11337343   0.28345336  0.022616018   0.02085651  0.040809261  0.084281789 
  766000   -1798294.2    10508.172    336.77386    76.914057    88.813394    81.150246    1392.8921  0.085800533  0.082222076   0.11381897   0.28184158  0.022561694  0.020257784  0.040728569  0.083548047 
  767000   -1798217.5    10580.518    773.21775    76.914057    88.813394    81.150246    1402.4819  0.085553934  0.081894359   0.11385554   0.28130383   0.02186812  0.020856159  0.042051365  0.084775643 
  768000   -1798263.2    10609.167    507.96724    76.914057    88.813394    81.150246    1406.2793  0.085485516  0.082948913   0.11353661   0.28197104  0.021937267  0.021074778  0.040009098  0.083021143 
  769000   -1798231.1    10596.465     498.0823    76.914057    88.813394    81.150246    1404.5956  0.086649454  0.083081387   0.11328746    0.2830183  0.022546327  0.020637103  0.040988697  0.084172126 
  770000   -1798196.4    10536.794    817.22602    76.914057    88.813394    81.150246    1396.6861  0.085604089   0.08123086   0.11293706   0.27977201  0.022110951  0.020713751  0.040705498    0.0835302 
  771000   -1798331.9    10603.316   -321.87112    76.914057    88.813394    81.150246    1405.5037  0.085306635  0.083053427   0.11291431   0.28127437  0.022111381   0.02126297  0.040586537  0.083960888 
  772000   -1798224.7    10633.225    924.09208    76.914057    88.813394    81.150246    1409.4683  0.086085098  0.082262073   0.11309871   0.28144588  0.022143324  0.020979618  0.039532708   0.08265565 
  773000   -1798259.8    10551.457    723.10958    76.914057    88.813394    81.150246    1398.6297   0.08660962  0.081776761   0.11484986   0.28323624  0.021837243  0.020372763  0.040509356  0.082719362 
  774000   -1798330.5    10617.247   -237.99689    76.914057    88.813394    81.150246    1407.3503   0.08620786  0.082413752    0.1143603   0.28298191  0.021987814  0.021155651  0.041195856  0.084339321 
  775000   -1798263.3    10579.082    512.77506    76.914057    88.813394    81.150246    1402.2915  0.086719326  0.082386852   0.11416722   0.28327339  0.022925577  0.020974138  0.039719637  0.083619352 
  776000   -1798205.4    10535.743    178.13841    76.914057    88.813394    81.150246    1396.5467  0.086216551  0.081973572   0.11495486   0.28314498  0.022389012  0.020639354  0.040951399  0.083979765 
  777000   -1798246.1    10523.143   -19.102391    76.914057    88.813394    81.150246    1394.8766  0.085466352  0.082320851   0.11425139    0.2820386  0.021684077  0.020536587  0.039465479  0.081686143 
  778000   -1798297.5    10594.169    111.89396    76.914057    88.813394    81.150246    1404.2913  0.086624355  0.081937906   0.11431758   0.28287984  0.022175924  0.020960501  0.039626279  0.082762703 
  779000   -1798238.3    10544.284    634.65756    76.914057    88.813394    81.150246    1397.6789   0.08744669  0.081869716   0.11568496   0.28500137   0.02239207  0.020523785  0.040615581  0.083531436 
  780000   -1798247.2    10542.094    380.89816    76.914057    88.813394    81.150246    1397.3886  0.086551104  0.082500348   0.11514618   0.28419763   0.02219973  0.020688803  0.041085734  0.083974267 
  781000   -1798300.3     10525.42    145.26153    76.914057    88.813394    81.150246    1395.1784  0.085955317  0.082191253   0.11395263    0.2820992  0.022483165  0.020753861  0.040261671  0.083498698 
  782000   -1798219.6    10607.495    1008.5936    76.914057    88.813394    81.150246    1406.0578  0.086275439  0.082621589   0.11479317    0.2836902   0.02176518  0.021416938  0.041022047  0.084204165 
  783000   -1798233.5    10605.886    169.18028    76.914057    88.813394    81.150246    1405.8444  0.085942239  0.082590982    0.1147739   0.28330712  0.021736964  0.020695413  0.040758888  0.083191265 
  784000   -1798266.2    10583.006    166.48066    76.914057    88.813394    81.150246    1402.8116  0.087007858  0.082095914   0.11567431   0.28477808  0.022183053   0.02067336  0.040959061  0.083815474 
  785000   -1798231.5    10499.561    309.37111    76.914057    88.813394    81.150246    1391.7507  0.087021966  0.082473487   0.11551161   0.28500706  0.022042925  0.020944594  0.041485689  0.084473208 
  786000   -1798271.9    10595.515    128.74496    76.914057    88.813394    81.150246    1404.4698  0.086752946  0.082385239   0.11518313   0.28432131  0.021883595  0.020424864  0.041090721   0.08339918 
  787000   -1798258.2    10556.424   -143.05763    76.914057    88.813394    81.150246    1399.2881  0.086912524  0.083254066   0.11442895   0.28459554   0.02176897  0.021279717  0.040543868  0.083592555 
  788000   -1798267.3    10539.526    129.89621    76.914057    88.813394    81.150246    1397.0482  0.085942058  0.082323111   0.11456878   0.28283395  0.022044211  0.020778567  0.040836811  0.083659589 
  789000   -1798246.5    10575.943      475.842    76.914057    88.813394    81.150246    1401.8754  0.086040624  0.083068365   0.11399978   0.28310877  0.022100839  0.021224285  0.040992212  0.084317336 
  790000   -1798267.8    10567.004    320.00308    76.914057    88.813394    81.150246    1400.6905  0.087705628  0.082481156   0.11426263   0.28444942  0.022282306  0.020585343  0.039824982  0.082692631 
  791000   -1798280.3    10579.061    271.77791    76.914057    88.813394    81.150246    1402.2887  0.087039627  0.081844747   0.11557337   0.28445774  0.021490371  0.020257974  0.041015878  0.082764223 
  792000     -1798249    10606.187    767.57717    76.914057    88.813394    81.150246    1405.8844  0.086408637  0.082363307   0.11459985    0.2833718  0.021688247  0.021005968  0.039848651  0.082542865 
  793000   -1798191.3    10554.412    703.27826    76.914057    88.813394    81.150246    1399.0214  0.086323247  0.082431171   0.11442734   0.28318176  0.022296694  0.020953405  0.040115198  0.083365297 
  794000   -1798265.1    10605.581     535.6796    76.914057    88.813394    81.150246     1405.804  0.087042938  0.082695605   0.11488406    0.2846226  0.022505138  0.021277311  0.040610979  0.084393428 
  795000   -1798294.2    10554.655     213.0701    76.914057    88.813394    81.150246    1399.0536  0.086313493  0.081914439   0.11501691   0.28324485  0.021897297  0.020540393  0.041122837  0.083560527 
  796000   -1798288.1    10599.019    68.429538    76.914057    88.813394    81.150246    1404.9342  0.086113513  0.082864358   0.11479971   0.28377759  0.021587461  0.020659371  0.041685547  0.083932379 
  797000   -1798224.2    10589.696    1339.2468    76.914057    88.813394    81.150246    1403.6983  0.086963063  0.083106163   0.11448535   0.28455458  0.021636935  0.020978881  0.040205021  0.082820836 
  798000   -1798341.9    10600.368     178.6481    76.914057    88.813394    81.150246    1405.1129   0.08602538  0.082467605   0.11501078   0.28350376  0.021588236  0.020617025  0.041507626  0.083712887 
  799000   -1798249.1    10582.876    288.81574    76.914057    88.813394    81.150246    1402.7943  0.087313599  0.084192951   0.11585028   0.28735682  0.022032276  0.021504659  0.041488951  0.085025887 
  800000   -1798246.4    10537.314     244.1383    76.914057    88.813394    81.150246     1396.755  0.087104239  0.083484082   0.11576284   0.28635116  0.021987716  0.021261999  0.040869836   0.08411955 
  801000   -1798228.9    10608.771    263.43348    76.914057    88.813394    81.150246    1406.2268  0.087659159  0.084197522   0.11681816   0.28867484  0.022051877  0.020953498  0.040673842  0.083679216 
  802000   -1798273.8    10550.549   -56.410065    76.914057    88.813394    81.150246    1398.5094  0.087324357  0.083180947   0.11447079   0.28497609   0.02272612    0.0209366  0.041889947  0.085552667 
  803000   -1798323.8    10535.029   -330.09372    76.914057    88.813394    81.150246    1396.4521  0.086626655  0.083937928   0.11429146   0.28485605  0.021856776  0.020821913  0.040751582  0.083430271 
  804000   -1798184.1    10559.661    392.16841    76.914057    88.813394    81.150246    1399.7172  0.088021109  0.084753833   0.11615645   0.28893139   0.02172598  0.021686997  0.040868572  0.084281549 
  805000   -1798247.5    10580.301    128.58124    76.914057    88.813394    81.150246     1402.453   0.08733839   0.08475235   0.11634256    0.2884333  0.022042188  0.021120282  0.041698451   0.08486092 
  806000   -1798259.6    10563.227    519.24175    76.914057    88.813394    81.150246    1400.1899  0.088045669  0.084349892   0.11605674    0.2884523  0.022035439  0.020857304  0.040613706  0.083506449 
  807000   -1798227.3    10526.369    597.80204    76.914057    88.813394    81.150246    1395.3042  0.086959313  0.084812376   0.11604102   0.28781271  0.022100756  0.021559808  0.042008231  0.085668794 
  808000   -1798260.4    10474.766    228.46045    76.914057    88.813394    81.150246    1388.4641  0.087812518  0.083480798    0.1152921   0.28658541  0.022424487  0.021036826  0.040701868  0.084163181 
  809000   -1798278.3    10609.372    528.12764    76.914057    88.813394    81.150246    1406.3065  0.087966066  0.082565218    0.1156973   0.28622859  0.021928429  0.020310658  0.040792995  0.083032082 
  810000   -1798269.6    10599.688    182.61328    76.914057    88.813394    81.150246    1405.0229   0.08700115  0.083695824   0.11518784   0.28588481  0.021347433  0.020712058  0.040379101  0.082438592 
  811000   -1798218.9    10537.048    60.175099    76.914057    88.813394    81.150246    1396.7197  0.088260509   0.08506265   0.11468719   0.28801035  0.021846721  0.021562831  0.040211567   0.08362112 
  812000   -1798257.8    10560.234   -56.121026    76.914057    88.813394    81.150246    1399.7931   0.08719614  0.084061592   0.11618152   0.28743925  0.022198472   0.02087527  0.040570145  0.083643887 
  813000     -1798278    10595.224    323.66032    76.914057    88.813394    81.150246    1404.4312  0.087983853  0.083844894   0.11512385    0.2869526  0.022082918  0.020763087  0.040531206  0.083377212 
  814000   -1798270.6    10522.188    66.105274    76.914057    88.813394    81.150246    1394.7499  0.087444489  0.084175461   0.11592623   0.28754618  0.022192842  0.021196692   0.04115753  0.084547063 
  815000   -1798260.9    10633.274     562.5877    76.914057    88.813394    81.150246    1409.4748  0.087579347  0.084357309   0.11497315    0.2869098  0.021866987  0.021179123  0.040866744  0.083912855 
  816000   -1798255.2    10533.262    165.48954    76.914057    88.813394    81.150246    1396.2179  0.087415721  0.084571324   0.11607321   0.28806025  0.021740412  0.021053893  0.041006924  0.083801229 
  817000   -1798245.2    10581.771    776.06183    76.914057    88.813394    81.150246    1402.6479  0.086539285  0.084755019   0.11660114   0.28789545  0.021645715  0.021573735  0.041900269  0.085119719 
  818000   -1798216.9    10506.273    449.60841    76.914057    88.813394    81.150246    1392.6404  0.086678172  0.085182778   0.11583174   0.28769269   0.02191743  0.021480188  0.041960877  0.085358496 
  819000   -1798246.7    10661.933    648.42609    76.914057    88.813394    81.150246    1413.2737  0.087102823  0.083881524   0.11792507   0.28890942   0.02214942  0.020834446  0.042826486  0.085810352 
  820000   -1798231.5    10626.938    671.87754    76.914057    88.813394    81.150246    1408.6349  0.087759316  0.084201847   0.11643877   0.28839994  0.021572786  0.020604109  0.041207888  0.083384783 
  821000   -1798207.2    10549.485    646.67591    76.914057    88.813394    81.150246    1398.3683   0.08764839  0.084454073   0.11593987   0.28804234  0.022442686  0.020956778  0.041292802  0.084692266 
  822000   -1798329.6    10552.741    159.92916    76.914057    88.813394    81.150246    1398.7999  0.086698674  0.084852197   0.11662286   0.28817373  0.021924452  0.021419264  0.041990018  0.085333734 
  823000   -1798257.5    10582.604   -67.487838    76.914057    88.813394    81.150246    1402.7583  0.087632556   0.08580515   0.11602063   0.28945833  0.021670206  0.021424613  0.041030843  0.084125662 
  824000   -1798281.1    10539.705   -78.659917    76.914057    88.813394    81.150246    1397.0719  0.088232357  0.084021765   0.11597763   0.28823175   0.02236301  0.020626326   0.04098025  0.083969587 
  825000   -1798281.5     10616.97    48.189877    76.914057    88.813394    81.150246    1407.3137  0.088051635  0.085266053   0.11705515   0.29037284  0.022317535  0.021137633  0.041033536  0.084488704 
  826000   -1798264.4    10510.832    689.19464    76.914057    88.813394    81.150246    1393.2447  0.087328867  0.084420914   0.11681333   0.28856311  0.022137807  0.020743529  0.042056576  0.084937912 
  827000   -1798260.8    10558.589    706.59889    76.914057    88.813394    81.150246    1399.5751  0.087791474  0.084803132    0.1178647   0.29045931  0.022068048  0.020608719  0.041331916  0.084008683 
  828000     -1798264    10597.613    100.78078    76.914057    88.813394    81.150246    1404.7478  0.087672366  0.084633832   0.11737387   0.28968007  0.022046679  0.020672456  0.041789627  0.084508762 
  829000   -1798294.4    10582.575    150.51363    76.914057    88.813394    81.150246    1402.7545  0.086947538  0.084514967   0.11528513   0.28674764  0.021629294  0.020836429    0.0408841  0.083349823 
  830000     -1798291    10541.037    152.02797    76.914057    88.813394    81.150246    1397.2484  0.087588405  0.084142667   0.11455157   0.28628265  0.022423836  0.020202805  0.040352399   0.08297904 
  831000   -1798255.9    10600.937    640.06518    76.914057    88.813394    81.150246    1405.1884  0.087883325  0.084831265   0.11758684   0.29030143  0.022239487   0.02094602  0.041915436  0.085100943 
  832000   -1798228.9    10584.947    670.80707    76.914057    88.813394    81.150246    1403.0689  0.088137565  0.085076922   0.11667593   0.28989041  0.022153875  0.020984726  0.040961623  0.084100223 
  833000   -1798212.1    10561.489    941.24406    76.914057    88.813394    81.150246    1399.9595  0.087573719  0.083838073   0.11642962   0.28784141  0.021900607  0.020706624  0.040697563  0.083304794 
  834000     -1798257    10529.559    750.42515    76.914057    88.813394    81.150246     1395.727   0.08710137  0.083495062   0.11702574   0.28762218  0.021940254  0.020147205  0.041141673  0.083229132 
  835000   -1798234.2    10600.822    718.44486    76.914057    88.813394    81.150246    1405.1731    0.0879874  0.084756112   0.11714734   0.28989085  0.022023973  0.020834354  0.041899117  0.084757444 
  836000   -1798215.8    10649.661    632.71716    76.914057    88.813394    81.150246     1411.647  0.088106548  0.084807559   0.11698532   0.28989942   0.02220934  0.020813496  0.041230311  0.084253148 
  837000   -1798244.8    10592.141    768.44625    76.914057    88.813394    81.150246    1404.0225  0.087926615    0.0836655   0.11738365   0.28897576   0.02192066  0.020798111  0.041401395  0.084120166 
  838000   -1798258.4    10600.568    577.66797    76.914057    88.813394    81.150246    1405.1395  0.087737238  0.084407186   0.11692133   0.28906575  0.022046397  0.020696493  0.041727319   0.08447021 
  839000     -1798186    10564.138    927.96643    76.914057    88.813394    81.150246    1400.3107  0.088571207  0.083538203   0.11606379    0.2881732  0.022032184  0.020548997  0.041796466  0.084377646 
  840000   -1798224.2    10505.196    184.66973    76.914057    88.813394    81.150246    1392.4977  0.088456524   0.08467327   0.11709611    0.2902259  0.022564809  0.020591368  0.040689659  0.083845837 
  841000   -1798293.5    10588.738    238.47505    76.914057    88.813394    81.150246    1403.5714  0.089019277  0.085555212   0.11684694   0.29142143  0.022143377  0.021118017  0.041367039  0.084628433 
  842000   -1798263.9    10559.271    105.33344    76.914057    88.813394    81.150246    1399.6655  0.088938132  0.084642192   0.11693385   0.29051417  0.022559659  0.020571495  0.040965839  0.084096993 
  843000   -1798290.9    10620.094    544.69912    76.914057    88.813394    81.150246    1407.7278  0.089180374   0.08489944   0.11693723   0.29101704  0.022351766  0.020812306  0.042188045  0.085352117 
  844000   -1798315.3    10606.304    155.30897    76.914057    88.813394    81.150246    1405.8999  0.088729684  0.084166062   0.11602777   0.28892352  0.022476394  0.021218929  0.040074739  0.083770062 
  845000   -1798339.1    10538.063    38.597649    76.914057    88.813394    81.150246    1396.8543  0.088467903  0.083808128   0.11565955   0.28793558   0.02166114   0.02015742  0.041482374  0.083300934 
  846000     -1798325    10545.312    305.74403    76.914057    88.813394    81.150246    1397.8151  0.089194572  0.084921821   0.11478301    0.2888994  0.022188697  0.020970901  0.041137476  0.084297074 
  847000   -1798258.1    10579.587    373.65107    76.914057    88.813394    81.150246    1402.3584  0.088633993  0.084892508   0.11698659   0.29051309  0.021749774   0.02080629   0.04149402  0.084050084 
  848000   -1798305.4    10554.999    67.789845    76.914057    88.813394    81.150246    1399.0992  0.087985228  0.083452099   0.11571273   0.28715006  0.021839692  0.020458211   0.04121869  0.083516593 
  849000   -1798264.8    10542.826   -49.838679    76.914057    88.813394    81.150246    1397.4856  0.088610953  0.085526951   0.11678354   0.29092145  0.022438454  0.020557831  0.042681124  0.085677408 
  850000   -1798250.1    10589.551    146.93401    76.914057    88.813394    81.150246    1403.6792      0.08831  0.084653374   0.11693427   0.28989765  0.021702317   0.02069564  0.042998557  0.085396514 
  851000   -1798252.4     10571.25    417.44399    76.914057    88.813394    81.150246    1401.2533  0.087787603  0.084458114   0.11710066   0.28934638  0.021785654  0.020898217  0.041808153  0.084492024 
  852000     -1798247    10584.823    433.96964    76.914057    88.813394    81.150246    1403.0524  0.087674345  0.084582741   0.11680249   0.28905957   0.02132122   0.02091492  0.041708657  0.083944797 
  853000   -1798303.8    10563.584    514.39565    76.914057    88.813394    81.150246    1400.2372  0.088624752  0.084892623   0.11636736   0.28988473   0.02255283  0.021183621  0.042080266  0.085816718 
  854000   -1798217.9    10575.084    177.17743    76.914057    88.813394    81.150246    1401.7616  0.087811538  0.084324472    0.1162215   0.28835751  0.022281071   0.02070516  0.041402992  0.084389223 
  855000   -1798276.1    10584.054    75.619821    76.914057    88.813394    81.150246    1402.9505  0.088934471  0.084561105   0.11712997   0.29062555   0.02209225  0.020590002  0.042257199  0.084939451 
  856000   -1798192.2     10586.96    1053.5138    76.914057    88.813394    81.150246    1403.3358  0.088628176  0.083680083   0.11865534    0.2909636  0.022432495   0.02065712  0.042306361  0.085395975 
  857000   -1798244.1    10596.673    646.50348    76.914057    88.813394    81.150246    1404.6232  0.088555151  0.084938548   0.11763439   0.29112809  0.021808689  0.021204725   0.04213577  0.085149183 
  858000   -1798274.3    10537.513    46.936573    76.914057    88.813394    81.150246    1396.7813  0.088509194  0.085367942   0.11821766   0.29209479  0.022224682  0.021096285  0.041200481  0.084521448 
  859000     -1798245     10555.34    493.54029    76.914057    88.813394    81.150246    1399.1443  0.089177826  0.084705364   0.11887747   0.29276066  0.022370678  0.021225897  0.042734062  0.086330637 
  860000   -1798290.5    10528.566    39.706729    76.914057    88.813394    81.150246    1395.5955  0.089249385  0.083592117   0.11821479   0.29105629  0.022375235   0.02068563  0.041087302  0.084148167 
  861000   -1798224.3    10586.613    755.41289    76.914057    88.813394    81.150246    1403.2897  0.088755421   0.08448152    0.1179955   0.29123244  0.021771185  0.020962099    0.0423868  0.085120083 
  862000   -1798239.8     10561.51    691.75402    76.914057    88.813394    81.150246    1399.9622  0.088229313  0.084843258   0.11790263    0.2909752  0.022155648  0.020850991  0.040856229  0.083862868 
  863000   -1798323.2    10569.446   -273.92888    76.914057    88.813394    81.150246    1401.0142  0.087571494  0.084384405   0.11655656   0.28851246  0.021307484  0.020704534  0.041376693  0.083388711 
  864000   -1798299.7     10502.44    238.42306    76.914057    88.813394    81.150246    1392.1324  0.088210818  0.083754747   0.11723811   0.28920368  0.022075446  0.020897283  0.042312754  0.085285483 
  865000   -1798291.1    10579.225    234.27292    76.914057    88.813394    81.150246    1402.3105  0.089063573  0.085717988   0.11875246   0.29353402  0.021845143  0.020938205  0.041723547  0.084506895 
  866000   -1798267.4    10610.296    160.22762    76.914057    88.813394    81.150246     1406.429   0.08833584  0.085351332   0.11769087   0.29137804  0.021685488  0.021484007  0.041366232  0.084535728 
  867000   -1798274.9    10593.879     462.9835    76.914057    88.813394    81.150246    1404.2529  0.089235432  0.085715672   0.11739262   0.29234373  0.021913771  0.020798619  0.041710496  0.084422885 
  868000   -1798301.2     10575.44    527.46349    76.914057    88.813394    81.150246    1401.8087  0.089017265  0.084958893   0.11746963   0.29144578  0.022019399  0.021128005  0.041355694  0.084503098 
  869000   -1798328.9    10568.127   -340.80334    76.914057    88.813394    81.150246    1400.8393  0.088214069   0.08522346   0.11742583   0.29086336  0.022232923  0.020706716  0.040995387  0.083935026 
  870000   -1798241.8     10552.13    509.56454    76.914057    88.813394    81.150246    1398.7189   0.08811575  0.085692935   0.11805857   0.29186725  0.021378428  0.020799039  0.040714885  0.082892352 
  871000   -1798265.6    10585.854    933.21621    76.914057    88.813394    81.150246    1403.1892  0.088548664  0.085264454   0.11859297   0.29240609  0.022464828  0.020698049  0.040613982  0.083776859 
  872000   -1798191.3    10638.594    942.18413    76.914057    88.813394    81.150246      1410.18  0.089138704  0.085957053   0.11773693   0.29283269  0.022307043  0.021260605     0.040353  0.083920648 
  873000   -1798258.1     10614.95    716.91216    76.914057    88.813394    81.150246    1407.0459  0.087929166  0.085547831    0.1174659   0.29094289  0.022240604  0.021058084  0.041258164  0.084556852 
  874000   -1798237.3    10572.009    311.30248    76.914057    88.813394    81.150246    1401.3539  0.088169928  0.084783337   0.11722001   0.29017327  0.021798398  0.021230853  0.040462916  0.083492166 
  875000   -1798333.1    10528.012   -128.85603    76.914057    88.813394    81.150246    1395.5219  0.088573759  0.084222022   0.11761981   0.29041559  0.022444543   0.02048957  0.039953384  0.082887496 
  876000   -1798261.8    10620.477    266.57111    76.914057    88.813394    81.150246    1407.7785  0.088721148   0.08537746   0.11700556   0.29110417  0.022406372  0.020777046  0.040454354  0.083637772 
  877000     -1798200    10522.253     282.3697    76.914057    88.813394    81.150246    1394.7586  0.089788856  0.085924429   0.11750239   0.29321568  0.022668186  0.020988798  0.040550242  0.084207226 
  878000   -1798297.5    10558.276   -212.81707    76.914057    88.813394    81.150246    1399.5336  0.087821945  0.084974993   0.11847616    0.2912731  0.021399359  0.020989504  0.040493621  0.082882484 
  879000     -1798246    10617.761    759.14457    76.914057    88.813394    81.150246    1407.4185   0.08841479  0.084674058   0.11807759   0.29116644  0.021809459  0.020422931  0.040986813  0.083219202 
  880000   -1798287.9    10616.062    342.77159    76.914057    88.813394    81.150246    1407.1933  0.088986857  0.084449149   0.11885896   0.29229496  0.022257886  0.021035086  0.040028937   0.08332191 
  881000   -1798249.9    10555.943    328.48458    76.914057    88.813394    81.150246    1399.2244  0.089014283  0.085411804   0.11913753   0.29356361  0.022423367  0.021009216   0.04019741  0.083629993 
  882000   -1798282.6    10495.768    37.708945    76.914057    88.813394    81.150246    1391.2479  0.088575194  0.085819088   0.11909868   0.29349296  0.022495537  0.021350631  0.041066126  0.084912294 
  883000   -1798289.4    10573.568    323.97393    76.914057    88.813394    81.150246    1401.5605  0.088558553  0.084542785    0.1165571   0.28965843  0.022029416  0.020462867  0.039220597  0.081712879 
  884000   -1798325.7    10591.525    345.62736    76.914057    88.813394    81.150246    1403.9409  0.089371953  0.084834328   0.11833439   0.29254067  0.022144668  0.020910864   0.04041916  0.083474692 
  885000   -1798265.5    10623.541    537.39559    76.914057    88.813394    81.150246    1408.1847  0.088992412  0.085197704   0.11739362   0.29158374  0.021740186  0.020364846  0.040430293  0.082535325 
  886000   -1798285.4    10571.178    206.26926    76.914057    88.813394    81.150246    1401.2438  0.089162067  0.084856405   0.11716101   0.29117948   0.02203632  0.020454087  0.039430571  0.081920978 
  887000   -1798294.1      10553.9    389.97233    76.914057    88.813394    81.150246    1398.9535    0.0889749   0.08509492   0.11884683   0.29291665  0.021993582  0.021019106  0.040064957  0.083077645 
  888000   -1798247.6      10571.4    550.78667    76.914057    88.813394    81.150246    1401.2732  0.089565682  0.084539715   0.11832236   0.29242775  0.022183052  0.020422709  0.040047644  0.082653405 
  889000     -1798178    10598.752     919.1531    76.914057    88.813394    81.150246    1404.8989  0.089090815   0.08536557   0.11832161     0.292778  0.022292975  0.020620027  0.040348732  0.083261734 
  890000     -1798294    10579.388   -118.07536    76.914057    88.813394    81.150246     1402.332  0.089175847  0.085706902   0.11847343   0.29335618  0.021573198  0.020879946  0.040330894  0.082784037 
  891000   -1798243.6    10554.672    28.052255    76.914057    88.813394    81.150246    1399.0558  0.089780521  0.085528355   0.12003746   0.29534633  0.022566637  0.021107373  0.041250404  0.084924414 
  892000     -1798256    10571.072    160.84275    76.914057    88.813394    81.150246    1401.2298  0.088726966  0.085652893   0.11693862   0.29131848  0.022098589  0.020735797  0.039547195  0.082381582 
  893000   -1798172.1     10552.83    925.53609    76.914057    88.813394    81.150246    1398.8116  0.089033042  0.084871571   0.11832325   0.29222786  0.022051637  0.020625339  0.040759799  0.083436776 
  894000   -1798209.8    10570.679    462.43228    76.914057    88.813394    81.150246    1401.1776  0.089423892  0.085498346   0.11949278   0.29441502  0.022667488  0.020720622  0.041322189  0.084710299 
  895000     -1798271    10493.685    -275.0366    76.914057    88.813394    81.150246    1390.9718  0.088921014  0.085419138    0.1183531   0.29269325  0.021511993  0.020466972  0.040343011  0.082321977 
  896000   -1798263.3    10498.786    70.382219    76.914057    88.813394    81.150246     1391.648  0.089963866  0.085603061   0.11986831   0.29543524  0.022625377  0.021075673  0.041667582  0.085368632 
  897000   -1798248.3    10569.531    414.78909    76.914057    88.813394    81.150246    1401.0255  0.089378464  0.085237652   0.11920185   0.29381797   0.02221407  0.021181732  0.040603266  0.083999069 
  898000   -1798297.8    10578.382    42.287005    76.914057    88.813394    81.150246    1402.1986  0.089266571  0.085073261   0.11766622   0.29200606  0.022460569  0.020396056  0.040711613  0.083568238 
  899000   -1798238.5    10633.345    700.64168    76.914057    88.813394    81.150246    1409.4843    0.0902193  0.085528141   0.11804931   0.29379675  0.022275313  0.020846889  0.039727056  0.082849259 
  900000   -1798257.5    10559.572    560.26432    76.914057    88.813394    81.150246    1399.7054  0.089119844  0.085487477   0.11842891   0.29303623  0.022039548  0.020798892  0.040018207  0.082856647 
  901000   -1798240.9    10646.166    494.12222    76.914057    88.813394    81.150246    1411.1837  0.090256327  0.086918956   0.12101839   0.29819367  0.023051509  0.020923193  0.041535638   0.08551034 
  902000   -1798236.1    10559.422    771.82181    76.914057    88.813394    81.150246    1399.6855  0.090263401  0.085957664    0.1198649   0.29608597  0.022375611  0.020880687  0.039010866  0.082267165 
  903000   -1798250.5     10573.49    427.53206    76.914057    88.813394    81.150246    1401.5503  0.089795975  0.085823302   0.12029587   0.29591515  0.022045177  0.021604234  0.041318523  0.084967935 
  904000   -1798204.6    10602.025    730.77083    76.914057    88.813394    81.150246    1405.3327     0.089074  0.086494369   0.11876189   0.29433026  0.021602556  0.020710552  0.040304908  0.082618016 
  905000   -1798316.5    10570.506   -142.71929    76.914057    88.813394    81.150246    1401.1547  0.088049015  0.086421073   0.11939116   0.29386125  0.021846546  0.020997644  0.040775609  0.083619798 
  906000     -1798197    10520.406    516.17764    76.914057    88.813394    81.150246    1394.5137  0.089717086  0.086353466   0.11963055   0.29570111  0.022276764   0.02094024  0.041131659  0.084348663 
  907000   -1798220.9    10573.988    451.94118    76.914057    88.813394    81.150246    1401.6163  0.089600646  0.085600143   0.11913697   0.29433776  0.022050539  0.020695629  0.040289378  0.083035546 
  908000   -1798242.7    10567.968    522.71968    76.914057    88.813394    81.150246    1400.8183  0.089347402  0.086281703   0.12009466   0.29572377  0.022956066  0.021038147  0.041640329  0.085634542 
  909000   -1798228.5    10527.211    347.94013    76.914057    88.813394    81.150246    1395.4158  0.090171227  0.086339705   0.11881837    0.2953293   0.02260976   0.02097642  0.040421292  0.084007472 
  910000   -1798230.4    10494.566    316.35657    76.914057    88.813394    81.150246    1391.0886  0.090893793  0.085657626   0.11974933   0.29630075  0.023493527  0.020317055  0.041455886  0.085266468 
  911000   -1798208.8     10516.12    186.18385    76.914057    88.813394    81.150246    1393.9456  0.089014383  0.086108024   0.11847394   0.29359635  0.021806681  0.020994075  0.040052139  0.082852895 
  912000   -1798289.9    10520.868   -187.89392    76.914057    88.813394    81.150246     1394.575  0.089693573  0.087039346   0.12004485   0.29677777  0.021640729  0.021309133  0.041126316  0.084076178 
  913000   -1798267.1    10603.589    490.07491    76.914057    88.813394    81.150246      1405.54  0.091539266  0.086611153   0.12087573   0.29902615  0.022915478  0.020964897  0.040526002  0.084406376 
  914000     -1798191    10550.221    318.78046    76.914057    88.813394    81.150246    1398.4659  0.089419812  0.086413309   0.11851602   0.29434914  0.022043867  0.021064597  0.040244744  0.083353209 
  915000   -1798252.8    10603.003    331.18624    76.914057    88.813394    81.150246    1405.4623  0.090395058  0.086977142    0.1219243    0.2992965  0.022741779  0.021012698  0.040911323    0.0846658 
  916000   -1798203.3    10546.418    771.33592    76.914057    88.813394    81.150246    1397.9618  0.089956688  0.086353996   0.11855011   0.29486079  0.022189854  0.020882203  0.039558504  0.082630561 
  917000   -1798192.5    10531.948    256.48398    76.914057    88.813394    81.150246    1396.0437  0.089274537  0.086278114   0.12014718   0.29569983  0.022465589  0.021225497  0.040060352  0.083751438 
  918000   -1798277.3    10513.853    155.48919    76.914057    88.813394    81.150246    1393.6452  0.089328335  0.086551481   0.11909396   0.29497378  0.022226379  0.021345787    0.0402119  0.083784066 
  919000   -1798211.4     10585.01    375.02984    76.914057    88.813394    81.150246    1403.0772  0.088774742  0.087226629   0.11852115   0.29452253  0.021394966  0.021394473  0.040146203  0.082935642 
  920000   -1798252.2    10604.712    588.72419    76.914057    88.813394    81.150246    1405.6889  0.091320097  0.086401518   0.11842253   0.29614415  0.023560452  0.021216908  0.040136766  0.084914126 
  921000   -1798276.6    10620.761    457.66372    76.914057    88.813394    81.150246    1407.8162  0.089768506  0.085889987   0.11800142   0.29365991  0.022713723  0.021146495  0.039529507  0.083389725 
  922000     -1798196     10582.11     765.1349    76.914057    88.813394    81.150246    1402.6928  0.090323685   0.08631072   0.11979493   0.29642934  0.022196223  0.021024129  0.039955266  0.083175618 
  923000   -1798186.6    10481.976    284.64899    76.914057    88.813394    81.150246    1389.4198  0.089494346  0.086607547   0.11891953   0.29502142  0.022134604  0.021248523    0.0401984  0.083581527 
  924000   -1798293.1    10502.576    139.75293    76.914057    88.813394    81.150246    1392.1503   0.08956362  0.086240291   0.11902196   0.29482588  0.021677005  0.020950592  0.040441766  0.083069363 
  925000   -1798233.4     10585.65    628.19905    76.914057    88.813394    81.150246    1403.1621  0.090778404  0.086392513   0.11881564   0.29598656  0.022865426  0.021342075  0.040166508  0.084374009 
  926000   -1798265.3    10496.436   -59.594397    76.914057    88.813394    81.150246    1391.3365  0.090647155  0.086036675   0.11897059   0.29565443  0.022397761  0.020828382  0.040949331  0.084175474 
  927000   -1798267.4    10548.697    152.82878    76.914057    88.813394    81.150246    1398.2638  0.090353026  0.086487409   0.12025103   0.29709147  0.022405172  0.021237659  0.041310497  0.084953328 
  928000   -1798252.8    10571.274    498.80161    76.914057    88.813394    81.150246    1401.2565  0.089326927  0.086362058   0.11793366   0.29362264  0.022197427  0.020776371  0.038862021  0.081835819 
  929000   -1798260.5    10534.271    489.23769    76.914057    88.813394    81.150246    1396.3517   0.08923324  0.085795606   0.11828639   0.29331524  0.021549416  0.020554541  0.039582566  0.081686523 
  930000   -1798155.4    10621.841    848.43374    76.914057    88.813394    81.150246    1407.9593  0.090144654  0.086414849   0.11917061   0.29573011  0.022309162  0.020598381  0.038691292  0.081598835 
  931000     -1798280    10563.257    148.67882    76.914057    88.813394    81.150246    1400.1938  0.091301561   0.08569247   0.11934227    0.2963363  0.022567563  0.020923607  0.039379848  0.082871017 
  932000   -1798229.8    10528.674    645.75715    76.914057    88.813394    81.150246    1395.6098  0.090286739  0.086369752   0.11930364   0.29596013  0.023159317  0.020715924  0.039458354  0.083333595 
  933000   -1798289.6    10562.312    159.21126    76.914057    88.813394    81.150246    1400.0685  0.088988316  0.086045229   0.11937452   0.29440807  0.021734122  0.021079563  0.039602745   0.08241643 
  934000   -1798228.5    10474.042    335.45012    76.914057    88.813394    81.150246    1388.3681  0.089850137  0.085631665   0.12002843   0.29551024  0.021704212  0.020719675  0.039506712  0.081930599 
  935000   -1798265.8    10609.285    452.39694    76.914057    88.813394    81.150246    1406.2949  0.090070803  0.087761307   0.11805593   0.29588804  0.022537243  0.021278777  0.038523221  0.082339241 
  936000   -1798230.2      10505.2    248.54091    76.914057    88.813394    81.150246    1392.4982  0.089250357  0.087122457   0.11950118     0.295874  0.021833882  0.020401113  0.039609434   0.08184443 
  937000   -1798190.9     10481.56    635.91992    76.914057    88.813394    81.150246    1389.3646  0.090595761  0.087812824   0.12054214   0.29895072  0.022738832  0.021099939   0.03968989   0.08352866 
  938000   -1798142.9    10568.599    696.17622    76.914057    88.813394    81.150246    1400.9019  0.090253298   0.08666285   0.11962933   0.29654548  0.022103614  0.021069838  0.039952805  0.083126257 
  939000   -1798251.8    10517.048    495.74177    76.914057    88.813394    81.150246    1394.0687  0.091559854  0.088058633   0.12016601    0.2997845   0.02271822  0.020535457  0.039536906  0.082790583 
  940000   -1798265.7    10563.441    88.701307    76.914057    88.813394    81.150246    1400.2183  0.091145171  0.087956057   0.12040346   0.29950469  0.022558993  0.021192038  0.038289755  0.082040786 
  941000   -1798257.9     10554.58    414.42655    76.914057    88.813394    81.150246    1399.0437  0.090816916  0.087510128   0.12010469   0.29843174  0.022161459  0.020633674  0.039217214  0.082012347 
  942000   -1798220.6    10594.259    320.22034    76.914057    88.813394    81.150246    1404.3033  0.091696967  0.088281435   0.11942357   0.29940197  0.022551108  0.021292455  0.037740786  0.081584348 
  943000   -1798256.8    10549.943    307.68145    76.914057    88.813394    81.150246    1398.4291  0.090817441  0.087289461   0.12065189   0.29875879  0.021907326  0.020486947  0.039660268  0.082054541 
  944000   -1798239.7     10603.65    299.19504    76.914057    88.813394    81.150246     1405.548   0.09155461  0.087131447   0.12052517   0.29921123  0.022991816  0.020206267  0.038995041  0.082193123 
  945000   -1798292.1    10558.442    230.40805    76.914057    88.813394    81.150246    1399.5555  0.089821258  0.088682061   0.11999569   0.29849901   0.02181927  0.021198987  0.038812018  0.081830275 
  946000   -1798276.6    10654.905    882.57798    76.914057    88.813394    81.150246    1412.3421  0.090992118  0.086956432   0.12096397   0.29891252  0.021911545  0.020160626  0.039106746  0.081178918 
  947000   -1798245.6    10613.144    656.65728    76.914057    88.813394    81.150246    1406.8065  0.090805576  0.087390073   0.12072873   0.29892438  0.022002947  0.021002333   0.03905901   0.08206429 
  948000   -1798255.7    10597.069    141.20148    76.914057    88.813394    81.150246    1404.6758   0.09100213  0.087624648   0.12123637   0.29986315  0.021937375   0.02072209  0.039461165   0.08212063 
  949000   -1798232.2    10587.064    312.33379    76.914057    88.813394    81.150246    1403.3496  0.091974482  0.087414844   0.12170997    0.3010993  0.022748171  0.021521991  0.039814729  0.084084891 
  950000   -1798289.3    10645.286    952.71412    76.914057    88.813394    81.150246    1411.0671  0.092733952  0.087393035   0.12106188   0.30118887  0.022679981  0.020995444  0.039648822  0.083324247 
  951000   -1798206.1    10582.105    1048.0823    76.914057    88.813394    81.150246    1402.6923  0.092321548  0.087348058   0.12160042   0.30127003  0.023135075  0.020297046  0.039137339  0.082569461 
  952000   -1798222.8        10585    1042.3974    76.914057    88.813394    81.150246    1403.0759   0.09139804  0.089045109   0.12104257   0.30148572  0.021432547  0.021195252  0.039941788  0.082569587 
  953000   -1798267.7    10525.624     137.7268    76.914057    88.813394    81.150246    1395.2054  0.091707898  0.087756257    0.1212245   0.30068866  0.021973224  0.020426106  0.038386372  0.080785703 
  954000   -1798231.4    10621.719    774.68226    76.914057    88.813394    81.150246    1407.9431  0.091656467  0.088540514   0.12069186   0.30088884   0.02253386  0.020579052  0.039848847  0.082961758 
  955000   -1798237.8    10623.692    624.77692    76.914057    88.813394    81.150246    1408.2047  0.091422597  0.088708938   0.12167147   0.30180301  0.022067405  0.021423369  0.040499887  0.083990661 
  956000   -1798244.2     10507.06    443.74564    76.914057    88.813394    81.150246    1392.7447  0.091433806  0.088257203   0.12330188   0.30299289  0.022755947  0.020950994  0.042283006  0.085989947 
  957000   -1798227.2    10493.134    563.23284    76.914057    88.813394    81.150246    1390.8988  0.091345307  0.088303965   0.12131938   0.30096865  0.021768505  0.021717751  0.041576972  0.085063228 
  958000   -1798211.6    10568.744    632.31351    76.914057    88.813394    81.150246    1400.9212  0.091278982  0.088693605   0.12133205   0.30130463  0.022843623  0.021222511  0.041114596   0.08518073 
  959000   -1798240.6    10554.739    1014.2978    76.914057    88.813394    81.150246    1399.0647  0.090937517  0.088308409   0.12154562   0.30079155  0.022272468  0.021191364  0.040392685  0.083856518 
  960000   -1798260.2    10507.852    430.86198    76.914057    88.813394    81.150246    1392.8497  0.091023935   0.08884234   0.12094709   0.30081336  0.022306492  0.021152106   0.04067646  0.084135058 
  961000   -1798283.1    10508.296   -101.91497    76.914057    88.813394    81.150246    1392.9086  0.091515268  0.087556184   0.12035918   0.29943063  0.023215829  0.020764472  0.040785914  0.084766215 
  962000   -1798272.3    10589.496    272.32425    76.914057    88.813394    81.150246    1403.6719  0.091725676  0.088767735   0.12152505   0.30201846  0.022276359  0.021649486  0.041074761  0.085000605 
  963000   -1798239.6    10620.719    709.79671    76.914057    88.813394    81.150246    1407.8106  0.091962341  0.088091148   0.12219634   0.30224983   0.02267521  0.020790982  0.041279921  0.084746114 
  964000   -1798273.4    10566.596    754.92661    76.914057    88.813394    81.150246    1400.6364  0.090666662   0.08856333   0.12111841   0.30034841  0.021961081  0.021124884  0.040280475  0.083366441 
  965000   -1798246.9    10495.736    443.38781    76.914057    88.813394    81.150246    1391.2437  0.091589593  0.088864448   0.12295527   0.30340931  0.022274373  0.021046151  0.040796274  0.084116798 
  966000   -1798247.7    10562.586    666.62092    76.914057    88.813394    81.150246    1400.1049  0.091064201  0.088591069   0.12112893    0.3007842  0.022755267  0.020418431  0.040691105  0.083864804 
  967000   -1798192.8    10569.783    576.44478    76.914057    88.813394    81.150246    1401.0589  0.091070931  0.088699694   0.12212203   0.30189266  0.021908468  0.021131279  0.040757916  0.083797663 
  968000   -1798214.3    10576.995    895.97735    76.914057    88.813394    81.150246    1402.0149  0.091547114  0.088289173   0.12295699   0.30279328  0.022363611  0.020818526  0.041458628  0.084640765 
  969000     -1798243    10546.442    430.15373    76.914057    88.813394    81.150246    1397.9649  0.091153165  0.089218226   0.12245628   0.30282767  0.021965255  0.020795216  0.041696677  0.084457148 
  970000   -1798324.7    10560.279    244.01364    76.914057    88.813394    81.150246    1399.7991  0.092615147   0.08887271   0.12388501   0.30537287  0.022573085  0.020882975  0.042291955  0.085748015 
  971000   -1798240.5    10492.293    434.21155    76.914057    88.813394    81.150246    1390.7873  0.092347841  0.088720564   0.12261696   0.30368536  0.022490687  0.021182276  0.042007465  0.085680428 
  972000   -1798279.1    10536.747   -41.007987    76.914057    88.813394    81.150246    1396.6799  0.092598745   0.08913995   0.12285719   0.30459589  0.022131055  0.020974199  0.041824592  0.084929846 
  973000   -1798239.4    10531.995    199.77894    76.914057    88.813394    81.150246      1396.05  0.092421968  0.089388729   0.12363694   0.30544764  0.022413308  0.021172724  0.040765225  0.084351257 
  974000   -1798249.4    10593.228    630.82104    76.914057    88.813394    81.150246    1404.1665  0.091268602  0.089376077   0.12341401   0.30405869   0.02152279  0.021134947  0.041265652  0.083923389 
  975000   -1798293.4    10554.781    141.05652    76.914057    88.813394    81.150246    1399.0703  0.092603053  0.088316789   0.12394103   0.30486087  0.022489931  0.020822004  0.040391016   0.08370295 
  976000   -1798271.6    10491.618   -256.04983    76.914057    88.813394    81.150246    1390.6978  0.092995906   0.08928101   0.12453393   0.30681084  0.022179228  0.021099013   0.04165988   0.08493812 
  977000   -1798254.3    10518.739   -129.68483    76.914057    88.813394    81.150246    1394.2928  0.092600581  0.089756668   0.12240571   0.30476296  0.021783833  0.020822455  0.040400768  0.083007056 
  978000   -1798308.2    10587.365    188.56329    76.914057    88.813394    81.150246    1403.3895  0.093134639  0.089508016   0.12363835     0.306281  0.021393299  0.020941237  0.040132426  0.082466962 
  979000   -1798220.8    10569.496    555.79195    76.914057    88.813394    81.150246    1401.0208  0.093024127  0.089479896   0.12297344   0.30547747  0.022713945  0.021501681  0.040675638  0.084891264 
  980000   -1798315.7    10555.646    255.11871    76.914057    88.813394    81.150246    1399.1849  0.091824924  0.090311478   0.12254209   0.30467849  0.022033019  0.020677551  0.040793847  0.083504417 
  981000   -1798280.1    10571.944    331.62148    76.914057    88.813394    81.150246    1401.3454  0.092588499  0.090376311   0.12450479    0.3074696  0.022113128  0.020850167  0.041709447  0.084672742 
  982000   -1798287.8    10540.474    289.73224    76.914057    88.813394    81.150246    1397.1739  0.094650657  0.089778544   0.12409083   0.30852003  0.022496271  0.021194838  0.041232911   0.08492402 
  983000   -1798266.9    10578.718     326.0371    76.914057    88.813394    81.150246    1402.2432  0.092406369  0.089562267   0.12447297   0.30644161  0.021923558  0.020800039  0.041742107  0.084465703 
  984000   -1798285.6    10569.017    565.84109    76.914057    88.813394    81.150246    1400.9574  0.093262082  0.090183241   0.12466057   0.30810589  0.022476134  0.021290249   0.04133036  0.085096742 
  985000   -1798316.1    10554.657    198.82861    76.914057    88.813394    81.150246    1399.0539  0.093288213  0.090392501   0.12322097   0.30690168  0.022213624  0.021162095  0.040456979  0.083832698 
  986000   -1798265.6    10492.766    142.16505    76.914057    88.813394    81.150246      1390.85  0.093063763  0.089811703   0.12413597   0.30701143  0.021953253  0.020893817  0.040537582  0.083384652 
  987000   -1798288.3    10512.728    242.00305    76.914057    88.813394    81.150246     1393.496  0.092590026  0.089932376   0.12356286   0.30608526  0.021642507  0.021300557  0.040927588  0.083870652 
  988000   -1798278.5    10532.326    311.46409    76.914057    88.813394    81.150246    1396.0938  0.092495698   0.09037302   0.12397983   0.30684854  0.022271676  0.020487736  0.040950573  0.083709985 
  989000     -1798292    10616.495    235.74963    76.914057    88.813394    81.150246    1407.2507   0.09242149  0.090781767   0.12331531   0.30651857  0.022296832  0.021134771  0.039832974  0.083264577 
  990000   -1798251.1    10570.833    5.8665308    76.914057    88.813394    81.150246    1401.1981  0.091791673  0.090782432   0.12452424   0.30709835  0.021779711  0.020694952  0.041334117  0.083808779 
  991000     -1798278    10515.762    328.90502    76.914057    88.813394    81.150246    1393.8982  0.093201842  0.091081271   0.12283901   0.30712213  0.022131809  0.021592992  0.040554237  0.084279039 
  992000   -1798247.7    10602.041    153.00284    76.914057    88.813394    81.150246    1405.3348  0.093829251  0.091254674   0.12442936   0.30951328  0.022636739  0.020975318  0.041587542  0.085199598 
  993000   -1798223.5    10544.721     557.4687    76.914057    88.813394    81.150246    1397.7368  0.093485589  0.091192747   0.12583941   0.31051775  0.022714567  0.021072108  0.041412925    0.0851996 
  994000   -1798224.5    10522.072    716.95138    76.914057    88.813394    81.150246    1394.7347  0.092801298  0.091223097   0.12520404   0.30922844  0.021850804  0.021188559   0.04127711  0.084316473 
  995000   -1798264.1    10602.672    712.42662    76.914057    88.813394    81.150246    1405.4185  0.091982764  0.090765959   0.12362134   0.30637006  0.021821107  0.020827233  0.040468918  0.083117258 
  996000   -1798213.3    10545.059    601.97636    76.914057    88.813394    81.150246    1397.7816  0.092497157  0.091742015   0.12413257   0.30837174   0.02196121  0.021943548   0.04171515  0.085619909 
  997000   -1798307.8    10566.249    181.42748    76.914057    88.813394    81.150246    1400.5905  0.093213868  0.090159691   0.12383535   0.30720891  0.021982781  0.020688479   0.04131039   0.08398165 
  998000   -1798269.9    10519.705   -99.430433    76.914057    88.813394    81.150246    1394.4209  0.093403891  0.091103141   0.12409224   0.30859927  0.022361685  0.021443937  0.040484143  0.084289765 
  999000   -1798279.5    10559.349    200.10616    76.914057    88.813394    81.150246    1399.6758  0.094289264  0.090721383   0.12517691   0.31018756  0.021873502  0.021112956  0.041496823  0.084483281 
 1000000   -1798293.4    10623.495     122.3389    76.914057    88.813394    81.150246    1408.1786  0.093315585  0.091420045   0.12459337     0.309329  0.021701346  0.021150069  0.042108624   0.08496004 
Loop time of 117463 on 15 procs for 1000000 steps with 58365 atoms

Pair  time (%) = 86917.8 (73.9959)
Kspce time (%) = 27102.6 (23.0733)
Neigh time (%) = 1096.85 (0.933786)
Comm  time (%) = 1669.6 (1.42139)
Outpt time (%) = 1.39595 (0.00118842)
Other time (%) = 674.718 (0.574409)

Nlocal:    3891 ave 3918 max 3835 min
Histogram: 1 2 0 0 0 0 4 1 1 6
Nghost:    18568.8 ave 18687 max 18436 min
Histogram: 3 2 1 0 0 0 3 3 0 3
Neighs:    1.50388e+06 ave 1.54262e+06 max 1.45296e+06 min
Histogram: 1 1 0 3 2 1 1 3 0 3

Total # of neighbors = 22558144
Ave neighs/atom = 386.501
Neighbor list builds = 17886
Dangerous builds = 0
