
variable      mytemp equal  2000
# ------------------- Configuration ---------------------
read_data	CrO.dat
  orthogonal box = (0 0 0) to (77.301 89.2602 81.5585)
  1 by 5 by 3 MPI processor grid
  reading atoms ...
  58365 atoms

mass		1  15.9994
mass            2  51.9961

# -------------------- FORCE FIELDS ----------------------
pair_style buck/coul/long 10.0 10.0
pair_coeff    * * 1e-30 1e-30 0.0
pair_coeff    1 2 1204.18 0.3165   0.0
pair_coeff    1 1 9547.96 0.21916  32.0

kspace_style    pppm 0.0001



##-------------------- energy minimization ---------------

#compute   aE   all pe/atom
#min_style  fire

thermo          100
thermo_style    custom step pe pxx pyy pzz pxy pxz pyz lx ly lz temp

minimize      1e-8 1e-8 1000 1000
WARNING: Resetting reneighboring criteria during minimization (../min.cpp:168)
PPPM initialization ...
  G vector (1/distance) = 0.308705
  grid = 72 80 75
  stencil order = 5
  estimated absolute RMS force accuracy = 0.00180213
  estimated relative force accuracy = 0.000125151
  using double precision FFTs
  3d grid and FFT values/proc = 58144 28800
Memory usage per processor = 12.4992 Mbytes
Step PotEng Pxx Pyy Pzz Pxy Pxz Pyz Lx Ly Lz Temp 
       0   -1799682.3   -135067.89   -133757.49   -29466.109    6.1317072    39.388853    76.595173       77.301      89.2602      81.5585            0 
      83   -1808294.3   -84909.514   -84971.629   -185038.56    36.932996   -9.5850176   -38.636215       77.301      89.2602      81.5585            0 
Loop time of 28.6179 on 15 procs for 83 steps with 58365 atoms

Minimization stats:
  Stopping criterion = energy tolerance
  Energy initial, next-to-last, final = 
        -1799682.25738     -1808294.26063     -1808294.27869
  Force two-norm initial, final = 872.615 1.03103
  Force max component initial, final = 27.6423 0.162854
  Final line search alpha, max atom move = 0.0276424 0.00450168
  Iterations, force evaluations = 83 229

Pair  time (%) = 23.1861 (81.0196)
Kspce time (%) = 5.04505 (17.629)
Neigh time (%) = 0.120211 (0.420055)
Comm  time (%) = 0.193331 (0.675559)
Outpt time (%) = 0 (0)
Other time (%) = 0.0732042 (0.255799)

Nlocal:    3891 ave 3946 max 3786 min
Histogram: 3 0 0 1 0 1 2 1 0 7
Nghost:    18548.7 ave 18753 max 18329 min
Histogram: 6 0 0 0 0 0 1 3 2 3
Neighs:    1.46765e+06 ave 1.51863e+06 max 1.40517e+06 min
Histogram: 1 0 2 1 3 1 3 1 1 2

Total # of neighbors = 22014812
Ave neighs/atom = 377.192
Neighbor list builds = 2
Dangerous builds = 0

## --------------------- system relax --------------------
#dump          1 all xyz 100 xyz/all.xyz
#dump_modify   1 element O Cr

velocity      all create ${mytemp} 4928459 dist gaussian
velocity      all create 2000 4928459 dist gaussian
fix           1 all npt temp ${mytemp} ${mytemp} 0.1 iso 0.0 0.0 2
fix           1 all npt temp 2000 ${mytemp} 0.1 iso 0.0 0.0 2
fix           1 all npt temp 2000 2000 0.1 iso 0.0 0.0 2
run      50000
PPPM initialization ...
  G vector (1/distance) = 0.308705
  grid = 72 80 75
  stencil order = 5
  estimated absolute RMS force accuracy = 0.00180213
  estimated relative force accuracy = 0.000125151
  using double precision FFTs
  3d grid and FFT values/proc = 58144 28800
Memory usage per processor = 10.2492 Mbytes
Step PotEng Pxx Pyy Pzz Pxy Pxz Pyz Lx Ly Lz Temp 
      83   -1808294.3    -56198.27   -56317.429   -156489.24    86.508919     54.21489    100.16136       77.301      89.2602      81.5585         2000 
     100   -1798964.3   -17016.933   -16147.982   -118576.54   -84.030743    216.30647   -163.21001    77.293334    89.251348    81.550412    767.69818 
     200   -1800459.6   -1532.8492   -1193.4595   -102993.72   -561.07328   -19.480795   -404.82692    77.075974    89.000361     81.32108    1057.0894 
     300   -1800096.4    26013.865    25814.776   -79362.228   -31.160567    396.80345    107.94176    76.883972    88.778653    81.118503    1148.7508 
     400   -1799649.7    42835.939    43282.591   -65739.362    913.45243    626.95189    41.484053     76.77918    88.657649     81.00794    1258.3847 
     500   -1798785.7    50554.768    50990.567   -59326.557    459.72481    184.66914    796.06663    76.760649    88.636251    80.988388    1329.7147 
     600   -1798126.1    48240.799    49769.807   -61114.468   -535.03609    570.85904    588.58453    76.818022    88.702501    81.048921    1438.3995 
     700     -1797261    43507.904    44421.004   -65149.164   -128.31938    592.60194    613.10923    76.909502    88.808134     81.14544    1527.2983 
     800   -1796394.1    40723.234    41328.334   -67699.865    278.45477    353.53298    796.37538     76.98937    88.900358    81.229706    1619.9127 
     900     -1795603    39764.403    39555.806   -68262.152    209.52784    383.82584   -162.49404    77.046735    88.966598    81.290231    1721.0645 
    1000   -1794796.5    39797.988    39721.669    -68216.18    -266.9413   -6.7086552   -400.65171    77.092086    89.018965     81.33808    1811.2983 
    1100   -1794110.1    40347.425    39065.283   -68274.905    644.98132   -520.07391    306.29845     77.13414    89.067525     81.38245    1900.0975 
    1200   -1793446.7    39449.658    39100.376   -68482.216    913.98632    248.17922    77.966955    77.176258    89.116159    81.426888     1964.718 
    1300   -1792996.9    36810.131    38242.728   -69364.231     177.6528    115.06931   -170.33426    77.216453    89.162573    81.469297     2015.477 
    1400   -1792808.1    34977.997    35523.917   -71522.844    499.77686    84.290937   -158.46672    77.248495    89.199572    81.503104    2039.7011 
    1500   -1792882.8    33094.646    32704.437   -74583.157    -328.9915    546.90472    522.19446    77.264297    89.217819    81.519776    2021.8809 
    1600   -1793142.8     31372.39    32110.596    -74842.98    172.57374    297.89447    52.732135    77.259762    89.212582    81.514991    1990.6839 
    1700   -1793331.8    32872.626    33388.703   -74056.058   -123.13642   -217.85747    68.271972    77.236418    89.185627    81.490361     1971.054 
    1800   -1793338.2    35659.368    37357.366    -70593.31   -399.40515   -15.718446   -1078.2652    77.207298    89.152002    81.459637    1977.8331 
    1900   -1793147.7    40209.106    39725.926   -68906.215    710.67985    212.85777   -567.46877    77.191121    89.133322     81.44257    1994.8463 
    2000   -1793013.6     40184.14    39096.736   -68647.388   -144.10872   -325.64039   -424.29309    77.198296    89.141606    81.450139     2014.876 
    2100   -1793001.9    37234.564    37416.132    -70420.53    640.79737   -15.870242    886.76663    77.221988    89.168964    81.475136    2016.1947 
    2200   -1793117.6    34958.613    33013.893   -73318.759   -799.76657   -396.68028    342.87552    77.244787     89.19529    81.499191    2001.0133 
    2300   -1793281.9    32519.064    32154.892   -74336.294    164.57443   -892.71117   -494.72005    77.250702     89.20212    81.505431    1992.1338 
    2400   -1793239.6    32653.213    33245.968   -72041.562    832.35973   -258.47455    163.01239    77.237341    89.186692    81.491334    1982.2198 
    2500   -1793217.1    36065.811    36457.359   -70862.749   -102.28867   -651.96245    484.99457    77.217972    89.164327    81.470899    2002.7271 
    2600   -1793146.2    37826.746    37891.802   -68854.732   -530.12069   -512.62974   -146.66126    77.207784    89.152563     81.46015    2019.1613 
    2700   -1793047.1    38225.806    37366.072   -69342.021    524.75868    216.94525    181.36499    77.213575     89.15925     81.46626    2009.1043 
    2800   -1793135.4    35190.596    36599.996   -71848.342    794.77909    130.04227    26.264317      77.2273    89.175098    81.480741    1999.4248 
    2900   -1793242.7    34141.022    33615.142   -73706.757    -72.30846    821.91704    215.99532    77.236514    89.185738    81.490463    1991.0419 
    3000   -1793243.6    34074.101    35324.576   -73573.856   -83.934863    638.03148   -449.22559    77.234304    89.183186    81.488131    1988.6799 
    3100   -1793117.4     36336.72    36751.507   -73387.323     436.3772   -304.09612   -809.39455    77.224719    89.172117    81.478018    1990.1337 
    3200   -1793108.5    36516.986    38077.906   -71625.562    291.19052    414.08801    217.82813    77.218009    89.164369    81.470938    2010.0249 
    3300     -1793147    36329.683    37231.147   -72034.475   -58.524002    191.47452     70.15573     77.21994      89.1666    81.472976    2018.4304 
    3400   -1793170.7    35289.716    36723.217   -72626.809   -106.35009    37.068499   -273.88557     77.22783     89.17571      81.4813    2006.0539 
    3500   -1793234.2    34333.742    34717.986   -74245.827      1036.92    219.54377   -56.082361    77.234845    89.183811    81.488702    1995.4335 
    3600   -1793203.9    34411.607    34665.859   -74125.185   -445.11426    209.37353    406.52254    77.233721    89.182512    81.487515     1988.331 
    3700   -1793255.1    35540.156    36789.511   -73117.914    659.76993    838.19271   -11.053778     77.22599    89.173585    81.479359    2009.3873 
    3800   -1793131.1     37630.47    37707.352   -71371.208    268.71011    356.29397     118.8849    77.219171    89.165711    81.472164    2010.4646 
    3900   -1793103.8    38341.299    37090.371   -71235.971     80.25614   -318.89097   -99.800574    77.220047    89.166722    81.473088    2011.2143 
    4000   -1793120.1    35879.755    37183.578   -72591.045    1083.2002    392.40142   -222.12218     77.22617    89.173793    81.479549    2000.8732 
    4100     -1793231    34997.793    36137.318   -72637.059    145.38449    354.81686    614.05014    77.230988    89.179357    81.484632    1997.1571 
    4200   -1793264.7    35641.446    34110.824   -73825.201    415.29294   -1038.9629   -96.571811    77.230055    89.178279    81.483647    1994.8513 
    4300   -1793177.5    36244.296    35923.351   -71580.024   -841.96955    436.82489    288.88782    77.223219    89.170385    81.476435    1994.8296 
    4400   -1793170.9    36110.456    37620.448   -71657.668    561.56282   -200.35723   -306.25417    77.218474    89.164907    81.471429    2011.5124 
    4500   -1793008.8    37575.666    36926.253   -69974.039   -201.47611    211.92054    248.49445    77.220923    89.167734    81.474013    1996.6233 
    4600     -1793164    36750.098    36778.622   -71670.089    236.13963   -501.50744   -471.10584    77.227917    89.175811    81.481392    2008.7116 
    4700   -1793207.7    33709.995    35393.643   -73071.067    360.10553    104.74249   -133.13336    77.233183    89.181891    81.486948    1997.5647 
    4800   -1793207.4    34612.661    36598.405   -72488.165   -23.205056   -24.842897    668.84551    77.230153    89.178392    81.483751    1990.0659 
    4900   -1793181.6    36472.015    35203.537   -71367.587   -321.15368    -206.7414    61.867823     77.22264    89.169717    81.475825    1994.7193 
    5000   -1793100.4    37373.146    37193.071   -70822.844   -477.82024   -830.14756   -352.27718    77.217603    89.163901     81.47051    1999.2835 
    5100   -1793076.3    36375.494    39368.708   -70786.856    155.98496    577.50416   -487.56314    77.219446    89.166029    81.472454      2004.26 
    5200   -1793128.3    36180.437    35461.439   -71941.613   -303.21881   -446.55217   -767.86231    77.226569    89.174254    81.479969    2003.3138 
    5300   -1793155.8     34017.39      34786.6    -72845.82    203.34343   -382.74781   -324.58113    77.232771    89.181416    81.486513    1992.4641 
    5400     -1793200    33456.554    36059.921   -72814.685   -516.28931    94.647122    126.58718    77.232459    89.181056    81.486184    1991.0686 
    5500   -1793169.8    35312.313    36264.209   -71225.408    234.76382   -161.17368   -32.675314    77.225455    89.172967    81.478794    1992.4858 
    5600   -1793149.4    36634.041    37975.211   -70304.725     158.9781    459.35365    492.69125    77.217418    89.163686    81.470314    2002.9007 
    5700   -1793139.8      36960.8    36179.674   -70682.416    825.70102   -179.94326    757.28358    77.216064    89.162124    81.468886    2009.0087 
    5800   -1793064.3    36541.871    36854.261   -71365.338    131.39641   -449.46703    765.50538    77.221344     89.16822    81.474456    1993.1554 
    5900   -1793237.6    35951.402    35498.444   -71652.224    231.33021   -771.05959   -419.83565    77.228702    89.176716     81.48222    2004.5785 
    6000   -1793226.7     35156.75    34328.422   -73768.105    1248.1193    126.51283    175.85702    77.232263    89.180829    81.485977    1996.3085 
    6100   -1793209.1    35580.641    35974.684   -71913.229    178.02493    249.36241     317.4293    77.228742    89.176763    81.482263    1998.5613 
    6200   -1793175.6    35318.401    36131.937   -71633.214   -606.97241   -631.14753   -512.37704    77.223331    89.170515    81.476554    2005.6553 
    6300   -1793091.8    35927.211    37212.562    -70637.13    863.93834    183.64004    18.562077    77.219769    89.166401    81.472795    2001.2666 
    6400   -1793140.7    37251.624    36711.521   -70643.226    424.11998   -328.68172   -236.06832    77.220809    89.167603    81.473893    2003.4324 
    6500     -1793214     37450.02    35725.756   -72162.332   -62.055644   -788.32583    117.16573    77.225171     89.17264    81.478495    2002.1101 
    6600   -1793257.1    34232.338    35157.896   -72671.988     478.1386   -196.52195    255.10564    77.227774    89.175646    81.481241    2000.0812 
    6700   -1793237.7     35765.05    35455.268    -73102.77    1130.5987   -194.50623    671.94232    77.225443    89.172954    81.478782    2001.0171 
    6800   -1793184.6    36990.064    36345.241   -70974.579    490.74009    108.92632   -509.43298    77.221065    89.167898    81.474162    2005.1823 
    6900   -1793113.9    37272.091    35351.052   -71366.213   -421.28281    90.894944    -665.2153    77.219572    89.166175    81.472587    2002.4818 
    7000   -1793055.4    36974.126    36263.754   -71626.847     524.5986   -220.88859   -262.66648    77.221953    89.168924    81.475099    1992.1036 
    7100   -1793206.2    36028.243    35213.281   -73429.611   -168.84925   -668.23224   -724.35242    77.226636    89.174331     81.48004    2002.3546 
    7200   -1793199.9    35112.807    34658.794   -72209.624   -525.90715   -125.65879   -205.10095    77.228708    89.176723    81.482226    1993.9088 
    7300   -1793238.9    36045.233    33634.135   -72697.958   -238.77227   -945.74228    -86.75796     77.22656    89.174243     81.47996    2001.1036 
    7400   -1793134.7    36029.268    36447.213    -71369.32   -550.63226   -387.65527   -935.56389    77.222166    89.169169    81.475324    1997.5563 
    7500   -1793124.2     36237.94    37882.977   -71901.348    522.96967    330.93173   -58.576944     77.22011    89.166796    81.473155      2004.22 
    7600   -1793161.9    37204.097    36287.222   -71642.252   -53.010006   -1357.6883    557.92156    77.221913    89.168878    81.475057    2006.4922 
    7700   -1793199.6    35680.791    34565.898   -71686.312    -894.6376   -361.99685   -776.42524    77.226637    89.174332    81.480041    2001.3443 
    7800   -1793196.7    35275.258    34793.077   -72797.938   -76.884002   -182.36213     293.7215    77.230339    89.178607    81.483947    1993.4293 
    7900   -1793202.3    35424.142    34997.303   -73349.091   -414.97335   -519.60238   -310.18137    77.230196    89.178442    81.483797     1996.874 
    8000   -1793165.3    36830.326     33986.49    -71899.39   -531.10122   -1006.9491   -33.494007    77.225217    89.172692    81.478543    2001.6205 
    8100   -1793109.5    36562.163    35991.245   -70581.981    -413.2774   -413.61963   -133.83717    77.219863     89.16651    81.472894    2000.9745 
    8200   -1793217.1    36192.031    36564.934   -71821.952   -111.64634   -82.684852   -348.92096    77.219566    89.166168    81.472581    2012.9627 
    8300   -1793248.9    35672.768    36231.516     -71308.1   -352.68328    422.52432    806.18689    77.222868    89.169981    81.476065    2007.4628 
    8400   -1793234.6    35963.475    35477.628   -71343.512    693.48731    517.61538    112.96516    77.226352    89.174003     81.47974    1997.0929 
    8500   -1793233.7      36142.3    35598.832    -71982.97    92.622586    -326.6787   -72.530061     77.22755    89.175387    81.481005     1999.761 
    8600     -1793136    36079.449    35409.769   -71800.544    19.927382    249.18215   -21.955434     77.22642    89.174082    81.479812    1997.4801 
    8700   -1793112.5    36101.787    36245.605    -72053.75    77.630257   -386.51404    45.409794     77.22419    89.171507     81.47746    2002.6374 
    8800   -1793099.4    38408.694     35147.54   -71533.086    155.48177   -124.81443   -370.39847    77.223123    89.170275    81.476334      2000.01 
    8900   -1793148.8    36526.688    35633.145   -72741.541   -215.66011   -104.50586    314.97406    77.224965    89.172402    81.478278     1996.647 
    9000   -1793237.4    36046.478    35438.846   -72204.575    519.48924   -66.664889   -15.165271    77.226903     89.17464    81.480322    1997.6294 
    9100   -1793167.1    35393.158    35638.773    -72011.54     -223.452    489.91692    771.19842    77.224854    89.172273     81.47816    1986.8859 
    9200     -1793165     36621.04    36958.522   -71358.441    515.72059    509.02358    939.10958    77.219549    89.166148    81.472563    1996.1823 
    9300   -1793165.6    36955.188    36572.275   -71814.679   -356.68075    297.64314    16.370769    77.216937    89.163131    81.469807    2006.8835 
    9400   -1793075.8    36635.279    37000.873   -71596.821     455.0417   -633.41522    261.60869    77.219637     89.16625    81.472656    1997.3549 
    9500   -1793162.4    35808.705     36307.86   -71442.504    20.330546   -50.035956   -567.91094    77.227708    89.175569    81.481171    2001.9341 
    9600   -1793122.9    36144.435    33929.508   -73125.771   -668.83224   -133.27245    170.75127    77.235867     89.18499    81.489779    1987.2971 
    9700   -1793160.1    34842.379     34954.57   -72763.947    322.72242   -173.34556   -163.37529    77.236497    89.185718    81.490445    1990.1648 
    9800   -1793189.7    36070.253    37051.435   -72359.591    371.81713    283.21471    679.25056    77.229538    89.177682    81.483102    2001.7833 
    9900   -1793137.9    37554.439    36901.348   -71257.992     336.0835    5.8428037   -232.55209    77.222348     89.16938    81.475516    2003.1951 
   10000   -1793119.7    36910.427    36794.816   -71297.443    -590.8865   -526.24159   -19.875307    77.220945     89.16776    81.474036    2002.0613 
   10100   -1793146.8    35361.607    35970.571   -72388.685   -396.40257   -681.03073   -438.59526    77.223975    89.171259    81.477233    1997.5267 
   10200     -1793211    34886.926    34832.782   -72591.303    491.55076    186.30559    121.99571    77.228494    89.176477    81.482001    1997.2306 
   10300   -1793240.7     35735.02    34403.964   -71621.424    8.5894302   -768.46775   -420.71038    77.229067    89.177139    81.482605    1998.3412 
   10400   -1793176.9    36324.026    36044.915   -72153.688    142.49219     226.1441   -440.32531    77.225759    89.173318    81.479115    1997.7198 
   10500     -1793164    37169.272    36320.182   -70959.501   -78.944248    369.64799   -947.28832    77.222486    89.169539    81.475661     2006.455 
   10600   -1793074.1    36716.121    35306.174   -71715.019     264.9497   -146.12259    78.499489    77.222328    89.169357    81.475495      1997.47 
   10700   -1793123.4    35950.485    35171.104   -71601.298    59.271071    239.12107   -300.02172    77.225046    89.172495    81.478363    1995.3625 
   10800   -1793220.9    35635.937    35099.358    -72508.04    903.58609   -138.53886    435.02813    77.226803    89.174524    81.480216    1997.8393 
   10900   -1793201.7    35276.923     36181.84   -71927.164    1388.4759    583.32881    415.90844    77.224307    89.171642    81.477583    1992.0575 
   11000   -1793114.5    36653.102    36495.206   -70827.455   -425.75671    497.84533   -331.54493    77.220186    89.166883    81.473235    1988.0709 
   11100   -1793183.8    35923.828    37598.539    -70571.54    50.460577    307.49605    324.31049     77.21727    89.163516    81.470158    2007.8583 
   11200   -1793180.8    36415.802     36126.83    -71423.37   -870.96593   -194.92795    132.86872    77.220022    89.166694    81.473062     2010.773 
   11300   -1793095.3    36079.142    35750.146    -72138.48     130.5211     173.3924   -768.28044     77.22737    89.175179    81.480815    1992.5998 
   11400   -1793245.4    34023.531    35002.226   -73615.646   -167.69611    404.50183   -113.29494    77.232985    89.181662    81.486739    2002.0974 
   11500   -1793215.8    34860.367     34573.87   -72958.495     208.6662   -56.775375    413.01869    77.229685    89.177852    81.483257    1995.1075 
   11600   -1793253.1    35794.748    36423.285   -72206.298    590.66587    719.76035    110.29743    77.220238    89.166944     81.47329    2007.8522 
   11700   -1793193.9    38215.073    37508.295   -70872.205   -380.24817   -208.14101   -564.99458    77.212274    89.157747    81.464887    2008.1944 
   11800     -1793134    37995.948    36730.487   -70444.723    898.87736   -322.23852   -187.16366    77.213746    89.159447     81.46644    2001.1946 
   11900   -1793137.4    35778.635    35673.388   -70471.054    656.77285   -230.42671    108.47778     77.22385    89.171114    81.477101    1994.3981 
   12000   -1793189.3    33772.129    34855.398   -73093.062   -322.88947   -489.61637   -131.87273    77.233709    89.182498    81.487502    1994.3315 
   12100   -1793184.6    35101.328    34826.712   -72895.556    -18.88693    14.791617   -460.48734    77.235115    89.184122    81.488986    1994.0944 
   12200   -1793174.8    36651.247    35543.227   -73189.166   -240.32968   -126.72533   -381.22146    77.227901    89.175792    81.481375    2001.6162 
   12300   -1793028.2     37697.24    37343.325   -71250.966    -360.7334    170.36398    63.733467    77.218469    89.164901    81.471424    1989.7445 
   12400   -1793136.9    37113.423    37754.301   -70818.716   -59.874252   -548.58186   -55.575116    77.213876    89.159597    81.466577    2001.4843 
   12500   -1793197.7    37313.843    37154.079   -71200.319   -245.54346    510.58251    110.85629    77.217793     89.16412     81.47071    1998.9118 
   12600   -1793251.1    36186.324     35464.58   -72549.125    227.08597    44.508099     183.7423    77.226202     89.17383    81.479582    1996.7033 
   12700   -1793220.2    34592.365    36254.778   -72850.155   -97.659971   -471.24963    15.527185    77.231991    89.180514     81.48569    1995.2875 
   12800   -1793123.9    34850.139    35662.234   -72906.006    105.42569    664.34079    493.87272    77.231584    89.180044    81.485261    1995.5178 
   12900     -1793129    35953.885    36293.182   -71241.302   -912.84744   -20.746104   -90.390014    77.225764    89.173324     81.47912    2008.0818 
   13000   -1793162.1    36434.117    36685.871   -70750.302   -507.31908   -10.960115   -289.17725    77.220125    89.166813    81.473171    2010.9343 
   13100     -1793180     36722.84    35270.883   -71905.569    -206.6845   -719.83515     126.7262    77.218347     89.16476    81.471295    1999.0331 
   13200   -1793238.2    35975.927    36195.322   -70693.433   -66.977517   -132.85358    104.76727      77.2174    89.163667    81.470296    1992.7747 
   13300   -1793290.9    36149.455    35437.158   -71910.526    467.28339    151.10619    50.871374    77.218709    89.165178    81.471677    1998.2326 
   13400   -1793211.9    36611.323    36028.741   -71636.942   -3.3184812   -499.13394   -72.987418    77.221532    89.168437    81.474655    1999.9066 
   13500   -1793122.3    35599.339    35772.254   -71252.681    23.124022   -529.77457   -497.73681    77.225382    89.172883    81.478717    2003.2635 
   13600   -1793069.1    36370.234    36836.797   -72518.256   -502.99479   -133.16013   -1611.5892    77.230038    89.178259     81.48363    2001.7389 
   13700   -1793203.8    35209.337    35071.165   -71839.143   -765.26808   -532.39455   -975.09146    77.234637     89.18357    81.488482    2012.1952 
   13800   -1793180.7     35141.71    34675.997   -72891.649   -1005.4687   -52.525239   -734.03097    77.233723    89.182515    81.487518    1995.2454 
   13900     -1793269    35986.267    35278.942   -71625.557   -584.94219    621.62508   -838.42787    77.224578    89.171954    81.477868    1998.1188 
   14000   -1793242.8    37229.895    36551.389   -70834.769   -727.33725   -320.78153   -739.99568     77.21346    89.159117    81.466139    1998.3514 
   14100   -1793217.9    37108.126    37316.338   -70854.974    174.48485   -362.38175    50.328186    77.208169    89.153007    81.460556    2005.4104 
   14200   -1793110.1    37286.543    37395.366   -70691.296    831.94319    94.522688   -483.49146    77.212818    89.158376    81.465462    1999.8569 
   14300     -1793167    34982.507    36099.881   -71843.008    181.18117    1136.0013    1.9809899    77.226066    89.173673    81.479439    2006.7718 
   14400   -1793101.8    34769.757    35313.431   -73669.885    781.87803    688.92024    1331.9239    77.238885    89.188475    81.492963     1990.703 
   14500   -1793209.8    33848.734    34283.827     -75276.6   -517.35567    520.66282   -109.86849    77.241796    89.191837    81.496035    2000.0813 
   14600   -1793200.3    35346.733    35862.241   -72284.204    108.14844    423.51165    177.60548    77.230992    89.179361    81.484636    1999.8761 
   14700   -1793185.3    36751.051    38767.463   -70838.313    594.24305    429.14826    243.49729    77.216421    89.162536    81.469263    2002.6402 
   14800   -1793184.4    38154.199    38241.141     -71058.6    417.04835   -347.24188    384.82111    77.209323    89.154339    81.461773    2004.0994 
   14900   -1793229.4    36382.365    37233.783   -71379.926    267.73556    -231.6701    247.07077    77.213814    89.159526    81.466512    2005.8462 
   15000   -1793241.6    35118.727    36021.603   -71938.606    820.16042    610.78166   -5.3264464    77.224892    89.172318    81.478201    2003.4359 
   15100   -1793209.8    34510.989    34166.506   -73057.454    340.43556     91.00793    125.49887    77.235036    89.184031    81.488903     1999.761 
   15200   -1793138.4     35289.86    35732.855   -73133.121   -647.02354   -557.48052   -88.849344    77.237852    89.187282    81.491874    1995.9335 
   15300   -1793129.4    34982.511    35854.418   -72727.307   -251.93676    61.548222    48.081227    77.232925    89.181593    81.486675    2002.0169 
   15400   -1793075.7    36113.767    36703.197   -71865.977    221.94787    896.63131   -252.78983    77.223921    89.171196    81.477176    1996.2891 
   15500   -1793226.8    37350.033    36520.385   -71560.182    243.51421    141.43587    -152.2549    77.216541    89.162675     81.46939    2008.2902 
   15600   -1793167.5    36123.387    36865.626    -71001.33   -826.11532   -98.030021   -285.24125    77.214382    89.160181    81.467111    1988.4008 
   15700     -1793217    36602.326     37666.95   -70743.085    387.03746   -111.20327    262.53352    77.216745     89.16291    81.469605    1990.7108 
   15800   -1793221.1    36069.514    35336.531   -71974.935    939.80621   -66.616478   -258.23121    77.222484    89.169537     81.47566    1998.3006 
   15900   -1793126.2    35930.425    34974.569   -72445.759   -631.90479   -75.027052   -280.71111    77.228412    89.176382    81.481914    1998.2828 
   16000   -1793089.6    34988.078    35707.251   -72908.842   -268.05929    941.25235    102.36465    77.232372    89.180955    81.486092    2003.1997 
   16100   -1793144.6    35497.063     35606.39   -72839.142    279.42368    466.04737    269.65049    77.232619    89.181239    81.486352    2008.9908 
   16200   -1793125.5    35279.601    36242.791   -72103.745    489.53009   -410.74345    670.30224    77.229366    89.177484    81.482921     1993.263 
   16300   -1793218.7    35087.139    35711.605   -71460.986   -331.87636     49.81803   -383.81935    77.224534    89.171904    81.477822     1992.831 
   16400   -1793262.6    36142.687    36743.887   -71564.654   -819.08376   -319.12399   -57.053039    77.219299     89.16586      81.4723    1997.2716 
   16500   -1793177.8    36089.281     36421.27   -71048.153    583.20307   -567.07362    753.75391    77.216348    89.162452    81.469186    1995.9038 
   16600     -1793190    37006.649    37339.592   -70834.566   -616.46634   -421.94755   -619.99262    77.218251    89.164649    81.471194    2010.0287 
   16700   -1793169.9    36259.078     36782.65   -71796.306   -197.40212   -233.02187     131.7836    77.225534    89.173059    81.478878     2010.414 
   16800     -1793166    34353.945     34879.18   -73781.576   -172.04457   -580.47869    170.89393    77.235256    89.184285    81.489135    2003.2405 
   16900   -1793187.7    35608.549    33533.709   -74680.941    703.23205   -1237.4627    886.52012    77.238071    89.187535    81.492105    1997.1719 
   17000   -1793201.3     35713.21    35871.079   -73108.996    106.67696   -268.40372    378.86078    77.230306    89.178569    81.483912    1993.9101 
   17100   -1793169.5    36214.611    36561.479   -71997.698    367.54903    454.15681    72.718131    77.216343    89.162446     81.46918    1993.3768 
   17200   -1793178.3    37887.466     38195.93   -70375.695   -422.04522   -127.11962    186.62375    77.205549    89.149982    81.457792    2001.4371 
   17300   -1793166.2     38700.64    38306.819   -70563.294    178.94617    568.31124    195.56391    77.206303    89.150852    81.458587    2002.3994 
   17400   -1793152.6    37287.868    35865.922   -71070.645    101.32891   -386.55948     222.8664    77.219005     89.16552    81.471989    1995.6953 
   17500   -1793208.8     35049.57    34049.856   -73706.805    504.66178   -884.09955   -468.70644    77.236065    89.185219    81.489989    1998.5256 
   17600   -1793180.6    33382.065    34021.424   -74150.324    246.24357   -508.30533   -351.15367    77.244919    89.195443     81.49933    1996.8215 
   17700   -1793148.4    34244.895     33409.85   -73311.252    115.06102   -449.24504   -40.326742    77.238988    89.188594    81.493073    2000.1618 
   17800   -1793124.7     37110.85    36697.088   -70596.585    167.93305   -705.73378     387.0293    77.223198    89.170361    81.476413    2002.7876 
   17900   -1793154.8    37240.792    38114.623   -69811.832   -242.82747   -341.21696    -15.40457     77.20971    89.154787    81.462182    2002.9315 
   18000     -1793275    36578.754    38049.389   -70338.734     171.8031    68.176947   -20.689157    77.206944    89.151593    81.459264    2007.1212 
   18100   -1793277.8    36520.476    36301.954    -70163.35    1116.0447   -356.00502   -100.30219    77.214953    89.160841    81.467714    1997.9163 
   18200   -1793222.2    34560.938    35288.926   -71591.835   -517.59834   -216.88723    265.78818    77.227449     89.17527    81.480898    1991.7715 
   18300   -1793197.7    34090.895    35902.696   -71730.746   -747.28731    501.92777   -525.78409    77.235262    89.184292    81.489142    2003.4829 
   18400   -1793074.7    34327.471    35571.246   -72153.609    78.065031    1213.6164    97.142727    77.237061    89.186369     81.49104    2001.8622 
   18500   -1793104.8    34935.605    35581.633   -72700.104   -244.20514    770.05252   -680.35669    77.234029    89.182869    81.487841    2007.4422 
   18600   -1793204.3     35183.21    35612.595   -71358.387   -250.19533   -14.028604   0.36364603    77.227517    89.175348    81.480969    2007.7877 
   18700   -1793231.3    35437.833      36616.8   -71546.213   -1194.4339    231.84438   -423.22304    77.220449    89.167187    81.473513    1995.1073 
   18800   -1793260.6    35915.596    36620.805   -70387.245    565.36756   -213.63905   -226.10841    77.215315    89.161259    81.468096    1991.5387 
   18900   -1793201.1    37085.979    36434.156    -71622.49   -175.16017   -148.91558   -681.97987    77.213756    89.159458     81.46645    1991.3544 
   19000   -1793123.8    36653.067    37056.417   -70699.999   -244.90423    170.16727   -386.65463    77.217193    89.163427    81.470077    1996.1915 
   19100     -1793083    36126.786    36794.973   -71451.851    -452.6201   -250.24002   -70.791703    77.227239    89.175028    81.480677    2001.5957 
   19200   -1793210.3    34258.684    34190.621   -73092.527   -164.60127    325.42138   -758.30556     77.23901     89.18862    81.493096    2017.0223 
   19300   -1793172.3     33380.21    33651.333   -73516.209   -367.51909   -117.87546     74.61656    77.242928    89.193143    81.497229    2000.3389 
   19400   -1793195.4    33991.939     34872.34   -73011.621    198.42811   -4.1671345    224.78213    77.234531    89.183447     81.48837    1993.3678 
   19500   -1793217.1    35932.217    36688.369   -71984.283    162.03868    712.18201    142.67629    77.218456    89.164886     81.47141    1994.4274 
   19600   -1793207.3    37742.422    38325.142   -70493.876    272.79774    168.59667   -16.671359    77.203783    89.147943    81.455929    1998.7823 
   19700   -1793196.1    40022.126    38786.157   -69393.304    478.00543   -413.35621   -73.481662    77.200419    89.144058    81.452379    2002.7034 
   19800   -1793134.3    37716.863    38143.218   -71623.999   -365.67511    104.23603    705.90847    77.213435    89.159087    81.466112    1994.7165 
   19900     -1793198    35793.501     33295.32    -72159.41     414.3114   -594.00864    536.39625    77.234204     89.18307    81.488025     2000.859 
   20000   -1793238.8     33326.27    31513.534   -74784.862    346.10166   -44.481311     893.4908     77.24816    89.199186     81.50275    2005.2014 
   20100   -1793125.3     33606.07     34445.89    -73774.89   -166.17138    433.52457   -523.18252    77.244313    89.194743    81.498691    1995.4376 
   20200     -1793130    34562.594    35805.156   -72705.347   -138.33943    373.93682   -247.53197    77.226855    89.174584    81.480271    2002.5524 
   20300   -1793186.9    38189.585    37644.867   -71046.262   -351.81903   -79.429522   -553.08597    77.207309    89.152014    81.459648    2007.9167 
   20400   -1793229.5    38535.723    38519.012   -69297.177    653.75762    161.75113   -198.55797     77.19925    89.142708    81.451146    2001.1292 
   20500     -1793212    36177.349    38075.436   -71930.973   -1209.2129    695.02213   -176.93344    77.207049    89.151714    81.459374    1986.7335 
   20600   -1793257.4    34718.607    36151.587   -72645.177    546.64011    284.09518    264.75251    77.222994    89.170126    81.476198    1992.3399 
   20700   -1793222.6    34066.614    32816.008   -75518.114    363.94134   -360.62431    48.978213    77.236825    89.186096     81.49079    2002.4925 
   20800   -1793099.7    34087.223    35004.422   -73632.208    162.01377    448.08649    701.41412    77.239407    89.189078    81.493515    2004.9021 
   20900   -1793108.8    35661.468    36694.661   -71771.167    52.103139     241.0847    418.62763    77.231987    89.180511    81.485686    2011.9181 
   21000   -1793117.7    37287.778    36657.472   -71000.061    553.02832   -292.08333   -130.62875     77.22202    89.169002    81.475171    1999.5062 
   21100   -1793227.1    36261.719    37036.914   -71646.102    349.36106    1034.9507     794.9539     77.21463    89.160468    81.467373    1993.1959 
   21200   -1793255.8     37658.17    37316.572   -71686.461    279.15135    557.77911    108.71338    77.211394    89.156731    81.463959    1986.6702 
   21300   -1793228.2    37176.136     38131.95   -70288.516    379.24641    410.00766     -58.5359    77.212415     89.15791    81.465036     1990.238 
   21400   -1793204.4    35983.682    36980.897    -71424.23     150.2947    153.72097   -467.13885     77.21855    89.164994    81.471508    2005.4444 
   21500   -1793102.5    36818.894    36240.239   -72647.664    249.46134   -783.26396    69.527804    77.228045    89.175958    81.481527    2005.5764 
   21600   -1793156.9     36041.11    33623.354   -74341.818    -421.3185   -1016.1296    632.57949    77.236377    89.185579    81.490318    2012.4216 
   21700   -1793190.4     35303.94    33310.289   -73601.824    446.58949   -746.42561    68.728047    77.236297    89.185486    81.490233    2003.3723 
   21800   -1793254.4    36124.456    34452.558   -73716.472    106.14004   -908.99616   -468.62695    77.227021    89.174776    81.480447    1998.6313 
   21900   -1793301.2     37236.14     35367.93   -71828.042   -69.695413    -927.1926   -635.05601    77.212486    89.157992    81.465111    2000.5262 
   22000   -1793220.9    37065.862    37506.815   -70711.244   -750.23352   -760.21334   -732.68533    77.202793      89.1468    81.454884    1996.2862 
   22100   -1793228.2    37582.799    38503.779    -69413.16    265.44168   -318.16431   -816.59368    77.205647    89.150095    81.457895    2006.7352 
   22200   -1793156.3    35732.065    35715.948   -71064.278   -596.24162    99.500235    -209.3268    77.220852    89.167653    81.473938    2002.9824 
   22300   -1793156.1    34475.395    34132.276   -73575.993    51.358192   -419.81867   -126.77623    77.238604    89.188151    81.492668    2002.8777 
   22400   -1793200.3     32603.11    33128.778   -73631.031   -489.26853    152.81421   -395.27131    77.246577    89.197357     81.50108    2003.5564 
   22500     -1793189    35115.668    34662.359   -72516.758    24.346475    94.962555    696.79889    77.238724    89.188289    81.492794    1997.4498 
   22600   -1793205.3    36133.478    36288.831   -71681.932   -6.6838857    158.24678    137.18752    77.221379     89.16826    81.474493    1999.9582 
   22700     -1793190    37973.288    38445.383   -69878.428    265.74695    149.10601    256.78978    77.205861    89.150342    81.458121    1999.2354 
   22800   -1793204.5    38521.935      39291.4    -69536.11   -968.62865    301.30187     283.4275    77.203013    89.147053    81.455116     2001.491 
   22900   -1793270.2    36565.315    36573.825    -71732.77    345.47471   -25.192359    530.38145    77.214302     89.16009    81.467027    2008.1286 
   23000     -1793173    34954.422    34799.046   -73563.332    634.94698   -927.80201    61.596996    77.230591    89.178898    81.484213    1994.0474 
   23100   -1793158.7    34938.542    33695.678   -74379.611   -30.927369   -180.24322    516.41514    77.240687    89.190556    81.494865    1997.5796 
   23200   -1793152.2    33915.028    33913.668   -73192.998     79.44067    699.46558    210.83843    77.239011    89.188621    81.493097    2002.3006 
   23300   -1793189.5     35972.52    35213.835   -72002.629    413.22778   -364.56871     177.4942    77.226947     89.17469    81.480368    2008.7138 
   23400   -1793176.1    37093.975    37381.903   -70781.979   -392.32113   -26.978891    220.04826    77.214364     89.16016    81.467092     2000.375 
   23500     -1793286     38748.25    37382.993   -71873.528   -836.17958   -498.24567      504.919    77.208628    89.153537    81.461041    2006.5604 
   23600   -1793278.8    36485.632    36836.788   -71829.329   -321.83801    832.55142    -231.8838    77.212427    89.157924    81.465048      2000.55 
   23700   -1793170.3    35891.279    36642.592   -71975.146    -733.6443   -293.00314   -567.96986    77.223773    89.171025     81.47702    1990.2498 
   23800   -1793120.7    34409.583    34845.974   -72907.452     -523.957    335.21679   -968.56399     77.23499    89.183978    81.488855    1994.3237 
   23900   -1793195.9    35480.937    34209.859    -72796.02    728.27943     604.2417   -497.99656    77.238913    89.188508    81.492994    2013.6984 
   24000   -1793235.1    34623.054    34879.698   -72398.652   -660.37893    307.10566    -325.2084    77.234894    89.183867    81.488753    2019.6123 
   24100   -1793179.5    34493.116     35840.26   -71928.759   -515.68753    1462.0805   -426.53482    77.226559    89.174242    81.479959    2002.6764 
   24200   -1793240.9    36635.664    36026.674   -71789.976    479.03711    834.59698    422.91326    77.217551     89.16384    81.470455    1998.3085 
   24300   -1793245.7     36451.32    37149.578   -70895.586    462.65183    426.37231    174.71708    77.211903    89.157319    81.464496    1993.8235 
   24400   -1793278.5    36362.948    36487.595   -71191.352   -132.44311    739.81956   -509.33684     77.21259    89.158112     81.46522     2002.722 
   24500   -1793189.9    35905.846    37081.907   -71080.584    1169.5462    780.46699    78.321801    77.218457    89.164887    81.471411    2002.5042 
   24600   -1793109.9    36072.594     36224.63   -71622.408    387.08159   -217.00805   -208.84303    77.226675    89.174376    81.480081    2000.1282 
   24700   -1793132.9    34902.867    33960.238    -73249.05    389.61095   -168.63261    801.25787    77.233598     89.18237    81.487385    2002.0189 
   24800   -1793191.8    35000.456    34810.056   -72467.562    987.20497   -171.35769    29.304445    77.233103    89.181799    81.486863    2001.8966 
   24900     -1793179    35791.357    36946.032   -73367.454    183.63764    463.39022   -4.3211691    77.225934     89.17352    81.479299    1992.2778 
   25000   -1793198.5    36485.716     36240.34   -71386.554   -151.68816    -389.8025   -92.698755    77.216155    89.162228    81.468981     1992.929 
   25100   -1793226.9    36829.268    38501.096   -70440.513    306.69968     882.4968    -689.6396    77.209834     89.15493    81.462313    2000.0882 
   25200     -1793163    37106.395    37301.465    -71620.62   -336.50421    103.37501   -802.02905    77.212991    89.158575    81.465644    1997.9274 
   25300   -1793219.9    36651.881    36339.589   -72982.927   -875.83657    247.36258   -215.37329    77.223695    89.170936    81.476938    2008.6901 
   25400   -1793142.4    34937.256    35855.367   -73049.007   -241.59392      468.209    182.80226    77.234543    89.183461    81.488383    1997.7973 
   25500   -1793209.7    33786.814    34898.359   -74238.308   -63.308673    972.80237   -730.11457     77.23981    89.189544     81.49394    2003.5106 
   25600   -1793160.7    35135.208    34402.184    -74040.19   -586.70874    280.48721    611.68245    77.235285    89.184319    81.489166    1994.3195 
   25700   -1793157.1    36290.273    36329.872   -73384.086    263.92974   -232.16548    360.15994    77.222448    89.169495    81.475621    1993.7606 
   25800   -1793197.2    37679.816    37928.925   -72329.745    392.44831   -631.68261   -103.68995    77.209718    89.154796    81.462191    1999.2366 
   25900   -1793192.4    38101.259    38899.317   -71429.646   -856.25124    990.42405   -964.26766    77.205867    89.150349    81.458127    1998.6366 
   26000   -1793211.1    36663.224    36482.261   -72012.431   -473.34385   -662.17647   -437.73832    77.214227    89.160002    81.466948    1999.3948 
   26100   -1793221.8    35700.882    35229.224   -73113.585   -70.186689    155.20127   -155.06217    77.227469    89.175292    81.480919     1998.488 
   26200   -1793185.7    34997.407    34716.465   -74399.959    93.822685    66.847046   -510.28483    77.235167    89.184182    81.489041    1994.0271 
   26300   -1793132.6    35149.048    35536.642   -73778.469   -295.82149   -403.23456   -441.80372    77.232979    89.181655    81.486732     1998.492 
   26400   -1793167.6    35737.634    35791.723   -72218.449    519.12497   -371.15694   -184.86361    77.224435    89.171789    81.477718    2011.8551 
   26500   -1793140.1    36942.293    37391.894    -71657.72    230.91465    179.37329    -350.6164     77.21735    89.163608    81.470242     2000.937 
   26600   -1793204.5    36706.869    36677.738   -72183.778    91.180929   -405.59909   -204.19944    77.215744    89.161754    81.468548    1994.5128 
   26700   -1793307.9    35870.635    36369.439   -72089.785   -801.38538   -474.55518   -63.795403    77.218969    89.165478    81.471951    2006.7687 
   26800   -1793219.3    34927.358     36187.81   -72862.629    184.38634    574.66336   -935.76299    77.224818    89.172231    81.478122    1999.7405 
   26900     -1793150     36034.08     35622.48   -71834.997    848.28495    748.83048   -21.197928    77.229867    89.178062    81.483449    1998.9354 
   27000   -1793132.9    35989.269    35166.751   -72086.135   -584.93501    26.315062    176.66519    77.232048     89.18058     81.48575    2003.4387 
   27100   -1793108.4    36031.734    34324.425   -72087.468    596.61639   -421.62836    676.96048    77.230799    89.179138    81.484433    2001.5378 
   27200   -1793148.6     35645.87    35245.623   -71836.362   -878.10799   -971.04162    -767.7661    77.226917    89.174655    81.480336    1993.9694 
   27300   -1793169.6    36819.369     35683.48   -71981.054   -273.57961   -540.74483    399.72783    77.221088    89.167925    81.474187    1985.5907 
   27400     -1793166     38054.91    36179.975   -70856.404   -504.90578    606.20803   -1279.1651    77.215385     89.16134     81.46817    1987.6025 
   27500   -1793160.6    37143.035    36926.516   -70579.005    109.76924   -182.15008   -654.57257    77.214281    89.160064    81.467005    1999.6502 
   27600     -1793104    37433.771    36802.454   -70979.855   -421.10585    600.17157   -438.60071    77.221358    89.168237    81.474472    1999.1912 
   27700   -1793172.7    34888.152    34992.366   -72600.415   -339.00749    201.27331    279.01973    77.232486    89.181086    81.486212    2005.4362 
   27800   -1793222.9    33423.362    34484.032   -73432.498   -263.07744    33.043094    549.51795    77.239154    89.188785    81.493247    2008.7975 
   27900   -1793197.3    34422.302    35595.552   -72886.875    465.47334   -24.660404   -154.62669    77.235061    89.184059    81.488929    2003.3974 
   28000   -1793124.1    35319.121    36727.288   -70463.556    266.74548    563.99357     615.8259    77.222679    89.169762    81.475865    1992.3104 
   28100     -1793175    37403.543    36872.221   -69812.181    28.468388    253.27928   -143.25623     77.21047    89.155664    81.462984    1996.1194 
   28200   -1793285.7    36794.894    38077.139   -69544.958   -49.441863    394.14436    109.36468    77.206106    89.150625     81.45838      1998.47 
   28300   -1793315.1    36993.502     36304.45   -70213.581     52.05811   -191.20183    453.22368    77.211871    89.157282    81.464462    1997.7487 
   28400   -1793214.7    35480.078    36176.416   -71320.165    257.22293    379.75196    498.52356    77.224475    89.171836     81.47776    1997.9051 
   28500   -1793135.1    35273.331     33312.97   -72356.506   -580.73888    12.934749   -371.42625    77.237367    89.186722    81.491362    1999.0424 
   28600   -1793186.1    34187.655    34279.242   -73500.451    565.63433    115.14201    826.76635    77.241703    89.191729    81.495937    2005.8885 
   28700   -1793151.9    34724.628    35483.337   -73068.715    789.34524   -64.266801    137.54588    77.234318    89.183202    81.488145    1997.0891 
   28800   -1793198.6    36127.823    36218.446   -71717.697    172.77474     616.1223   -405.13758    77.221235    89.168095    81.474342    1993.1212 
   28900   -1793326.5    37530.594    36168.347   -71467.177   -286.46149   -119.32499    6.0928374    77.209695    89.154769    81.462166    1997.2898 
   29000   -1793297.7    38654.666    38234.097   -70478.055    41.063615   -643.29753   -344.62057    77.203227      89.1473    81.455342    1995.2092 
   29100   -1793222.1     37105.42    37507.464   -70628.272    218.61847   -808.04529    852.92474    77.207981     89.15279    81.460358     2006.351 
   29200   -1793187.3    35416.055    36441.537   -71661.177    316.56364    902.99949    341.08757    77.221925    89.168891     81.47507    2003.9134 
   29300   -1793202.7    34675.878    33955.937   -72712.972    26.444617   -653.71527    59.125098    77.236929    89.186217      81.4909     2003.055 
   29400   -1793136.4      34508.4    32176.385   -73762.505    411.55199   -875.58829    168.07081    77.242387    89.192519    81.496659    1989.4545 
   29500   -1793176.6    35327.674    35382.101    -71936.63    435.50523    379.28469    351.83579    77.234223    89.183092    81.488045    1996.7937 
   29600   -1793142.5    35940.497    37477.491   -70348.434    142.41779    428.35736    395.66457     77.21957    89.166172    81.472585    2003.6883 
   29700   -1793169.4    36706.366    38005.359   -70413.977    464.10164    79.161951    790.79097    77.210023    89.155148    81.462512     2012.679 
   29800   -1793227.1    36757.396    37651.923   -70329.808    406.10283    596.94185   -198.26328    77.211419     89.15676    81.463985    2005.9826 
   29900   -1793237.6    36172.235    35061.192   -72051.066    692.24797    209.33476   -267.86085    77.220505    89.167252    81.473572    1997.8805 
   30000     -1793191    34682.068    35657.066    -71779.56    60.650559    228.46334   -108.63521    77.228396    89.176364    81.481897     1994.157 
   30100   -1793238.4    33868.164    35289.253   -72316.173    99.687946    782.39912   -60.988018    77.230861     89.17921    81.484498    2008.8591 
   30200     -1793198    35843.922    34979.234   -71879.857     786.6109   -27.722327   -117.26342    77.227489    89.175316     81.48094    2012.3662 
   30300   -1793150.5    36300.945    36122.662   -70419.743    206.02822    289.28238    11.462526    77.222041    89.169025    81.475192     2013.397 
   30400     -1793159    36152.286    36878.195   -70561.955     17.80716    206.43236   -412.19363    77.220256    89.166964    81.473309    2013.3714 
   30500   -1793224.4    35597.695    36053.892   -71957.659   -668.74827    540.23374   -1042.0859    77.223867    89.171134    81.477119    2004.8636 
   30600   -1793242.5    35379.689    34389.923   -72711.518     66.91148    864.65991    370.84087    77.227403    89.175217     81.48085    1998.8569 
   30700   -1793159.2     35025.03    35921.813    -71781.56    230.24434    32.306663   -21.263272    77.226738    89.174449    81.480148    1989.5147 
   30800   -1793204.6    36017.046    36231.035   -71035.426    292.28067   -353.05534     634.3704    77.223671    89.170908    81.476912    2007.9226 
   30900   -1793198.9    36835.528    36783.298   -70733.225    61.567098    363.90857    835.09404    77.222428    89.169472    81.475601    2014.8827 
   31000     -1793154    34867.782    36050.233   -71149.119   -43.596923    541.02736    1005.0127    77.225192    89.172663    81.478516    2000.8161 
   31100   -1793208.7    35806.395    35343.411   -72154.302    564.28543    226.14468    780.04375    77.226907    89.174644    81.480326    1988.9968 
   31200   -1793229.7    35431.867    35596.548   -72087.975   -134.73506    15.931362   -259.57083    77.224869    89.172291    81.478176    1994.7569 
   31300     -1793194    36238.628    36534.288   -71428.693   -26.898786   -230.71986    267.06986    77.220581    89.167339    81.473652    2000.4068 
   31400   -1793233.6    36182.672    37713.673   -71661.344     326.8257    440.67419   -320.95821    77.218261    89.164661    81.471204     2013.013 
   31500   -1793183.9    35543.099    36654.091   -71990.307    265.73361    172.16466   -574.31478    77.220704    89.167482    81.473782    2005.3177 
   31600   -1793227.7    36391.459    36003.625    -71763.47   -241.19991    179.39284    -48.60308      77.2253    89.172789    81.478631    1995.1339 
   31700   -1793218.8    35102.033    35823.517   -72258.238    3.1483132    322.98803   -13.511253    77.226817     89.17454    81.480231    1986.5463 
   31800   -1793200.8    35547.741    35638.867   -72603.079   -680.13446    -160.1041   -56.999237    77.222887    89.170002    81.476084     1992.033 
   31900   -1793226.8    35962.882    36620.954   -70929.965    70.341711   -451.81268    913.28335    77.218074    89.164444    81.471006    2003.6136 
   32000   -1793171.8    37387.148    36116.876   -70406.763   -393.91446   -128.76906    251.41268    77.217469    89.163746    81.470369    1997.9432 
   32100   -1793210.6     35840.42    35784.229   -72458.537   -70.203689   -751.18793    648.73382    77.222197    89.169205    81.475357    2002.5182 
   32200   -1793264.8    35545.543    34816.314   -72843.465    59.534206   -857.80788   -380.68348    77.228294    89.176246    81.481789    2007.6066 
   32300   -1793217.9    35453.338    34954.509   -73044.388    281.99191   -318.08048   -366.35625    77.229639    89.177799    81.483209    1995.2108 
   32400   -1793224.5    36993.633    35037.494   -72753.243   -401.17666   -411.82339   -371.82856    77.224935    89.172367    81.478245    1993.4307 
   32500   -1793202.1    36998.434    38067.805   -71521.515   -517.76783   -56.734395     18.33143    77.217435    89.163707    81.470333    2000.6348 
   32600   -1793131.7    38400.861    37834.974   -70382.921    792.35415    585.24485    381.46283    77.213616    89.159297    81.466303    2000.3977 
   32700   -1793147.3    38043.154    36129.546   -70719.325   -282.58051   -724.84942   -342.67256    77.219171    89.165711    81.472164    2002.1255 
   32800   -1793254.8     35472.05     34189.51   -72810.685   -354.87313   -703.83889    364.18328    77.228721    89.176739     81.48224    1998.1093 
   32900   -1793290.2    34258.383    34876.039   -73352.589   -125.94945   -574.05644   -101.99807    77.233689    89.182476    81.487482    1998.1214 
   33000   -1793177.4    35124.494    34306.536   -72569.379    920.71693    274.81043    424.60952    77.229135    89.177217    81.482677    1991.5809 
   33100     -1793227    36779.033    36285.542   -72061.321   -184.99661    511.93114    297.93542    77.219042    89.165562    81.472028     2007.454 
   33200   -1793190.8    37226.072    36949.811   -70734.375    -380.7724    723.69766   -165.80983    77.210882     89.15614    81.463419    2003.6926 
   33300   -1793207.4     36740.65    37855.239   -70552.989     453.9042    38.142039    523.80899    77.210938    89.156204    81.463477    2000.9914 
   33400   -1793260.9    35986.861    36280.663   -71705.064    143.43075    562.53106   -541.23225    77.220417     89.16715    81.473478    2001.6742 
   33500   -1793350.8    35325.601     33237.39   -73261.261    608.31459    87.448359    901.59023    77.233107    89.181803    81.486868    2002.8623 
   33600   -1793244.8    34099.328    34157.487    -73994.29    101.80929    717.53777    671.45789    77.237804    89.187227    81.491823    1981.8835 
   33700     -1793235    35009.387    35274.093   -73662.334    473.12938    778.03045   -132.36304     77.23007    89.178296    81.483663    1996.8415 
   33800   -1793194.1      35461.5    37083.187   -72010.755    655.95407    482.21441    139.57406    77.215343    89.161291    81.468125    2002.5617 
   33900   -1793150.4    39518.513    38273.158   -70445.457   -296.17795   -405.20896    534.12503    77.204225    89.148453    81.456395     1998.263 
   34000   -1793246.2    38277.765    38278.491   -70955.433    1079.3763   -100.46154    419.50482     77.20572    89.150179    81.457972    2003.5666 
   34100   -1793266.4    36664.334     35556.16   -72687.448    834.82786    202.87204    896.67218     77.21913    89.165664    81.472121    1993.2068 
   34200   -1793276.2    34636.018    34900.413   -73427.821    364.26879    318.56582     750.3095    77.233588    89.182359    81.487375    1995.7251 
   34300   -1793203.9    34001.213    35261.569   -73219.108     55.55815    247.56552    -523.6591    77.238856    89.188442    81.492933    2001.3143 
   34400     -1793124    34945.782    34268.773   -72855.045    560.71328    583.05101    418.01172    77.233992    89.182826    81.487802    1994.4276 
   34500   -1793177.6    35162.007    36089.764   -71313.928   -319.68625    435.49887   -594.41057    77.222059    89.169046    81.475211    2001.4501 
   34600   -1793216.5    37050.601    37117.166   -70838.209   -207.57994   -341.08947   -523.45257    77.211319    89.156645     81.46388    2001.4885 
   34700   -1793208.8     37964.54    37262.677   -70686.825   -787.38412   -473.29541   -941.65523     77.20865    89.153563    81.461064    1990.5005 
   34800   -1793278.9    36601.042    36176.171   -71566.343   -679.80352    304.64033   -924.58352    77.215015    89.160912    81.467779    1993.2012 
   34900   -1793206.6    35371.329    36216.888   -71880.303   -1286.3236    468.31255   -304.79985    77.224922    89.172352    81.478232    1990.5611 
   35000   -1793177.9    34468.353    36357.887   -72522.396   -766.43925    547.01512   -629.51181    77.233431    89.182178     81.48721    2005.3284 
   35100   -1793075.6    35712.778    34195.952   -73166.167    -587.5527   -146.38491   -291.52914    77.237553    89.186937    81.491558    1995.4391 
   35200     -1793151    34370.564    34395.816   -73332.504    264.43605   -148.60268   -197.82154    77.234398    89.183294     81.48823    2000.4145 
   35300   -1793194.1    36315.005    36277.397   -72916.556    -533.7962    198.63569   -441.35968    77.222353    89.169385    81.475521    1992.8301 
   35400   -1793217.5    37580.093    37147.439   -71077.835    102.87715    63.565396   -146.99379     77.20768    89.152442     81.46004    1989.1876 
   35500   -1793257.4    39158.977    38228.144   -69624.148   -1041.0495   -78.551034   -460.81725    77.200468    89.144114    81.452431     1997.826 
   35600   -1793200.9    36033.609    38207.663   -71992.625   -206.28893    610.09408   -62.053648    77.207103    89.151777    81.459432    1994.8291 
   35700     -1793215    36035.657    35783.012   -72595.162    232.44425    537.45104    52.981292      77.2236    89.170826    81.476837    1998.5938 
   35800   -1793208.5    34362.178    34009.911   -73705.726    186.23242    831.91742    394.13587    77.240101     89.18988    81.494247    2002.0254 
   35900   -1793040.7    34035.283    34190.357   -73613.355   -496.93237    155.61094    1227.0163    77.245825    89.196489    81.500286    1989.0853 
   36000   -1793147.1    34149.788    35751.077   -72374.864   -964.40656    835.10222    629.50249    77.237625     89.18702    81.491635    2012.3487 
   36100   -1793088.8    36813.904    37044.656    -70328.11    58.479887    550.44623    418.26534    77.223868    89.171135     81.47712    2005.3276 
   36200   -1793222.6    36694.779    37624.061   -70513.123   -280.40213    626.69879    412.67451    77.214573    89.160402    81.467313    2003.8051 
   36300   -1793216.3     36479.62    38077.371   -70692.619    352.37563    870.44772    216.28119    77.212402    89.157896    81.465023    1993.5298 
   36400   -1793265.3    36551.707    36935.075   -72188.961    567.95682    107.70984    642.18909    77.217104    89.163324    81.469983    1999.3774 
   36500   -1793189.9    36746.723    35311.425   -72048.275    535.58638    432.30571    243.48608     77.22474    89.172142     81.47804    1997.7244 
   36600   -1793197.5    35070.476    36163.645   -72329.852    213.65364    249.50985     738.1421    77.232927    89.181596    81.486678    2012.5202 
   36700   -1793107.5    34820.278    35708.765   -71812.081    569.73273    762.08649    435.79962    77.237344    89.186696    81.491338    2000.2039 
   36800   -1793219.3    34914.502     34115.09     -72413.8   -867.05598     355.4772    72.358354      77.2361    89.185259    81.490025    2008.8709 
   36900   -1793214.9    36459.421    34601.682   -72102.886    210.41178    32.260013    367.38505    77.227324    89.175126    81.480766    2004.3445 
   37000     -1793183    36270.134    37002.784   -71187.405    -247.3458    134.69557   -38.543273    77.215453    89.161418    81.468241    1998.1731 
   37100   -1793173.1    37816.108    38227.906   -70375.582    615.78365    132.90943    2.0471894    77.208265    89.153118    81.460657    1995.7583 
   37200   -1793233.1    37450.052    36256.622   -71365.169   -741.78987    205.44625    131.78004     77.21081    89.156056    81.463342    1999.1123 
   37300   -1793290.9    34487.162    35438.487   -72687.387    691.63839    122.14385   -263.11339    77.220816     89.16761    81.473899    1993.2243 
   37400   -1793291.2    36067.548    34964.164   -71934.084   -53.123933    519.43972   -175.55061    77.227763    89.175632    81.481229    1992.5955 
   37500   -1793187.9    35206.523    35063.779   -72081.952    227.79842    662.34293   -74.305913    77.228522    89.176509    81.482031    1996.3219 
   37600   -1793217.8    36036.569    34442.508   -72323.905    223.49886   -25.651273    417.55196    77.224497    89.171861    81.477783    2006.6865 
   37700   -1793181.9    36121.983    35365.026   -71508.286    69.941362   -301.84336   -122.74904    77.217537    89.163825     81.47044    2001.3273 
   37800   -1793186.5    37534.037    37479.783   -70497.891    666.64293   -166.34311    327.00025    77.212095    89.157541    81.464698    1994.6775 
   37900   -1793301.8    36590.048    35577.735   -70857.499   -348.79645   -57.045365   -830.32695    77.213065    89.158661    81.465722    1997.1725 
   38000   -1793322.2    36590.941    34348.235   -71727.345     360.7533   -333.95057    166.72104    77.216743    89.162907    81.469602    1997.0989 
   38100   -1793232.8    36266.286    36132.925   -72291.829    65.722624   -1024.3279   -124.73102    77.221468    89.168364    81.474588    2006.1957 
   38200     -1793113    35828.749    36043.664   -71736.478   -1063.3953    636.79034    204.54136    77.227761     89.17563    81.481227    1996.5969 
   38300   -1793100.4    36643.801    34784.978   -72167.299    272.09098   -393.68145    82.749953     77.23293    89.181599    81.486681    1991.3262 
   38400   -1793194.1    35006.509    34732.677   -72044.359    -6.268349    644.89439   -690.18827    77.233319    89.182048    81.487092    1995.3571 
   38500     -1793289    35676.833    34914.169   -73400.862    -693.0941   -296.62416   -253.48138    77.226121    89.173736    81.479497    1998.8096 
   38600   -1793281.5    36508.064    36310.912   -71969.997    87.023392    243.22057    402.81352    77.215331    89.161277    81.468113    1994.9813 
   38700   -1793205.9    37639.409     36874.95   -70917.209    303.33059   -456.57948    145.97294    77.208578     89.15348    81.460988    1999.0046 
   38800   -1793200.1    37250.292    38447.286   -70418.042   -278.97455    108.28661     121.1746    77.210058    89.155189    81.462549    2008.5758 
   38900   -1793273.3    34952.253    35896.613    -72565.93   -165.64768   -107.14367   -70.988588    77.221561    89.168471    81.474685    2015.6954 
   39000   -1793139.8    35177.194    34987.758   -73085.736   -221.65467   -321.81211    362.29256    77.235029    89.184022    81.488895    1985.9884 
   39100   -1793212.4    33293.603    34555.213   -73761.861   -706.44743    40.248903    200.47067    77.240084     89.18986    81.494229    1988.2213 
   39200   -1793222.8    34734.746    35640.476   -73225.167    323.26992    436.05353    216.91483    77.232308    89.180881    81.486025    2002.1038 
   39300   -1793178.4    36690.296    37477.758   -71442.704    375.70573     176.2784    750.34233    77.218518    89.164957    81.471475    2010.8778 
   39400   -1793165.1     38202.56    37788.617   -71851.861    213.82636    1226.5102    319.03627    77.210409    89.155594     81.46292    2002.0444 
   39500   -1793199.1    37918.855    37336.476   -72214.699   -72.174448    341.59646    1039.0562    77.211601     89.15697    81.464177    1994.2445 
   39600   -1793240.6    36089.256    36464.538   -72993.803    375.09093    512.42627    18.402235    77.219011    89.165527    81.471996    1994.9116 
   39700   -1793264.1     34952.29    36139.317   -72501.237    699.78351    390.80161    862.87572    77.228078    89.175996    81.481562    2002.9919 
   39800   -1793110.4     34847.53    34209.533   -72363.729   -14.070971    10.042817   -499.76111    77.233899    89.182718    81.487704    2001.5126 
   39900   -1793147.2    34618.852    35844.903   -71793.253    647.52788    73.969315     815.6718    77.233955    89.182783    81.487763    2007.8657 
   40000   -1793200.1    35254.735    35509.292   -71720.511   -822.97369    174.96902     1094.512    77.228824    89.176858    81.482349    2005.9269 
   40100   -1793205.1    34635.358    36286.233   -72220.819   -625.48148    250.40507    69.454417    77.221284    89.168151    81.474393    1998.3439 
   40200   -1793249.3    36061.425    35497.964    -70965.29    -1175.753    314.46638   -954.19483    77.213825    89.159538    81.466524    2000.6477 
   40300   -1793262.6    37902.248    36928.576   -69885.219    185.72957   -19.215643   -774.59202    77.211153    89.156453    81.463705    2003.3582 
   40400   -1793209.4    36930.453    36095.278    -70695.39    674.03792    292.70779   -108.28005    77.215003    89.160898    81.467767    1998.3013 
   40500   -1793278.7    34866.745     35793.36   -72128.513   -200.01268    334.13206   -41.790329    77.224988    89.172429    81.478302    2008.8352 
   40600   -1793214.9    33910.346    34405.737   -73867.539   -813.40217    579.75855    180.05163    77.236015    89.185161    81.489935    2001.6116 
   40700   -1793179.1    34749.709    34145.798   -73747.927   -157.31276    731.71605    429.25685     77.23957    89.189266    81.493686    2002.0532 
   40800   -1793140.3    35682.827    36682.946   -72708.467    302.64161    192.87435    614.05439    77.233363    89.182098    81.487137    2004.8458 
   40900   -1793164.1    36045.783    36280.163   -72553.478   -488.40657   -17.116294   -368.21721     77.22287    89.169983    81.476067    2015.4814 
   41000   -1793147.8    37678.175    37480.642   -70978.171   -195.30837    843.89583    263.42288    77.215038    89.160938    81.467803    2004.7908 
   41100   -1793219.9    37553.313    35918.271   -70845.837    49.823084    871.17358    265.04722     77.21444    89.160248    81.467172    1998.4369 
   41200   -1793225.7    35968.282     35396.66    -72565.45   -369.20487   -287.38446    535.89706     77.22021    89.166911    81.473261    1994.4565 
   41300   -1793243.9     34869.68    34680.525   -73142.247   -236.50977    114.63214    251.22842    77.227611    89.175457    81.481069    2001.0228 
   41400   -1793160.2    35177.814     35471.11   -72737.099   -434.23429    24.361082    377.07884    77.232108    89.180649    81.485813    2003.8698 
   41500   -1793116.2    36034.056    35255.135   -73488.603    905.15378    109.98994    1181.5491    77.231343    89.179767    81.485007    2004.7364 
   41600   -1793137.9    35563.135    36571.817   -73314.013    178.00531    397.29177    18.137733    77.226597    89.174287        81.48    2002.9183 
   41700   -1793161.6     37021.06    35639.567   -73535.734    659.23662    187.68692    599.39669    77.221048    89.167879    81.474145    2000.1759 
   41800     -1793199    36435.879    37469.556   -72548.847    870.85395    625.97148    823.99013    77.216366    89.162472    81.469204    1998.0712 
   41900   -1793219.2     37337.35    36140.783   -71784.152   -34.128042     538.2996   -37.543501    77.214668    89.160511    81.467413    1995.7947 
   42000   -1793278.6    35897.824    37111.316   -71792.376    166.32718    906.91643     365.2436    77.216456    89.162577      81.4693    2000.4048 
   42100   -1793254.6    36499.222    35880.495    -73047.56   -140.82819    894.77502   -62.203587    77.219443    89.166025    81.472451    1996.8587 
   42200   -1793289.7    36462.333     35562.93   -72780.472   -245.99408   -122.58776    114.11241    77.221927    89.168894    81.475072    2010.4384 
   42300   -1793146.8    36093.915    36825.759   -72019.934   -147.23963    178.90998    1063.5435    77.225562    89.173091    81.478907    2002.4995 
   42400   -1793138.8    35105.343      36237.3   -72763.285    46.949653    83.396403    434.93432    77.230326    89.178593    81.483934    2002.6377 
   42500   -1793178.5    35501.615    35034.851   -73767.349   -196.46496    312.80512    253.14476    77.230864    89.179213    81.484501    1996.1367 
   42600   -1793290.3    36355.929    34297.749   -72475.713    59.251839    -244.7314   -723.26477    77.224361    89.171704     81.47764    1998.9988 
   42700   -1793203.4    37275.281    37286.277   -71628.279    29.897903    566.33387     163.2297    77.213079    89.158676    81.465736    1990.4748 
   42800   -1793182.1    38733.933    38472.831   -70756.057     -396.417    320.11831    494.60566     77.20531    89.149706     81.45754     1993.189 
   42900   -1793195.1    38547.115    36771.988   -69926.827    190.28454   -343.20287   -89.222231     77.20726    89.151958    81.459597    1996.6825 
   43000   -1793201.5    35530.431    35603.285   -71877.927   -606.17568    281.64131   -408.59389    77.220033    89.166707    81.473074    2000.2667 
   43100   -1793218.3    34579.014    35082.671   -73256.735    185.04646    -210.6729   -261.73424    77.236364    89.185564    81.490304    2010.5296 
   43200   -1793104.8    33411.297    34226.089   -73839.784     157.9482    670.64317    168.04518    77.247037    89.197888    81.501564    2009.9431 
   43300   -1793155.8    33236.721     33544.48   -73083.628    886.71019    837.98463    914.47543    77.245592     89.19622    81.500041    2013.2857 
   43400   -1793167.7    35617.826    34954.467   -72586.717    587.87813    49.523291    420.02386    77.231293    89.179709    81.484954    1999.6674 
   43500   -1793249.1    37015.596    36591.024   -70733.824    458.59992    419.22994    241.57478     77.21172    89.157108    81.464303     2003.638 
   43600   -1793269.8     39661.61    38397.523   -69920.093   -85.232031   -137.28572    248.00681    77.199566    89.143073    81.451479    2003.9579 
   43700   -1793264.5    36577.058    38265.158   -70253.022    263.59396   -592.93205     247.3734    77.204309     89.14855    81.456484    1999.8025 
   43800   -1793179.9    36521.304    35464.655   -71219.385   -216.08874   -302.17175   -95.246167    77.221482     89.16838    81.474603    1983.1816 
   43900   -1793287.9    33329.696    33578.374   -74623.151    139.71373     -7.64678    273.65044    77.239111    89.188736    81.493203    2000.8685 
   44000   -1793255.3    34050.185    33555.942   -73931.545   -171.27701    851.54497    173.59332    77.244508    89.194968    81.498897    2012.0046 
   44100   -1793148.7    35515.336    35487.918    -72590.67    617.80326    785.43495    799.29267    77.236306    89.185498    81.490243       2005.6 
   44200   -1793197.8     35854.88    36318.674   -72196.228   -1035.8439    1155.5201   -432.64297    77.221585    89.168499    81.474711    2009.5849 
   44300   -1793201.3    36985.828    37917.281   -71557.843   -142.14986   -361.36063    103.98602    77.209994    89.155115    81.462482    1994.5776 
   44400   -1793252.9    38892.438    38003.861   -71128.447    154.29431   -186.45672    440.74351    77.206924    89.151569    81.459242     1994.704 
   44500   -1793241.9    37475.312    37323.592   -71846.602   -507.48294    482.65683   -55.010008    77.213919    89.159646    81.466623    1997.0894 
   44600   -1793192.2    36250.284    35700.138   -73878.572   -290.46922   -102.22785   -36.564273    77.226407    89.174067    81.479799    1998.3969 
   44700   -1793171.1    35543.196    35496.298   -73360.221    176.00838   -454.47025   -635.36821    77.236826    89.186098    81.490792    2004.7882 
   44800   -1793050.2    34432.576     34206.42   -73840.157     1146.134    467.55035    50.187677    77.241669     89.19169    81.495901    2000.4256 
   44900   -1793084.5    35962.614    35218.754   -72151.359   -478.36607   -133.08583   -502.23898    77.237711     89.18712    81.491725    2020.3071 
   45000   -1793101.5    36166.243    36574.316   -72688.151    1075.5623   -406.82503    296.14117      77.2298    89.177984    81.483378    2010.4245 
   45100   -1793148.2    36326.585    36282.827   -72027.324    1365.3631   -217.05109    1183.9129    77.222027     89.16901    81.475178    2002.1435 
   45200   -1793191.6    36390.515    37334.588   -71897.234    97.885636    933.72096    912.74305    77.215875    89.161906    81.468687    1996.7765 
   45300   -1793231.7    36371.744     36049.09   -72224.923    15.487834    554.35101     1451.641    77.213712    89.159408    81.466405    1993.9467 
   45400   -1793246.9     35884.97     37635.87   -71910.043    404.62801    310.46998    1339.6073    77.215032    89.160932    81.467797    1993.3937 
   45500   -1793239.9    35489.843    36142.546    -71479.66    400.18425    449.32854    954.85935    77.219452    89.166035     81.47246    2000.0089 
   45600   -1793153.6    36626.954    36476.507    -71333.34      1343.39   -300.62037    915.29382    77.226329    89.173977    81.479717    2004.1083 
   45700   -1793185.5    34449.612    35285.781   -72294.457     160.2865    256.73096    652.17909    77.234856    89.183823    81.488713    2008.0393 
   45800   -1793220.4    34478.414    34803.464   -73224.084    734.71585    274.13512    297.25747    77.237707    89.187115    81.491721    2004.0915 
   45900   -1793197.3    33697.646    35010.366    -72470.58    322.84847   -192.40122   -90.863207    77.231876    89.180382    81.485569    1993.1783 
   46000   -1793301.6     35987.51    35470.321   -72109.563    542.17655    583.69819    1020.1589    77.218073    89.164443    81.471005    2002.3429 
   46100   -1793305.2    37241.775    38151.588   -70332.917    98.889074    799.96724    773.87524      77.2039    89.148077    81.456052    1997.2753 
   46200   -1793269.9     37595.22    38928.538   -71328.857    497.50325    574.29571    1040.4083    77.200548    89.144207    81.452515    1996.3429 
   46300   -1793174.8    37106.058    37608.585     -71012.6   -305.83688    473.86082    42.507076    77.210232    89.155389    81.462732    1995.2157 
   46400   -1793101.1    35123.467    36349.334     -72549.9    887.38667    245.63333    636.02078    77.228496    89.176479    81.482002    1993.3045 
   46500   -1793173.1    33825.077     34806.82   -73525.019   -216.46248   -134.25922   -366.78086     77.24497    89.195502    81.499384    2006.9208 
   46600   -1793125.7    33047.093    32715.196   -72717.474   -480.79508   -116.67896   -365.21528    77.249398    89.200615    81.504056     1997.948 
   46700   -1793190.1    34183.823     33440.82   -73354.244   -323.44857    54.383877   -126.17057    77.236654    89.185899     81.49061    1992.8505 
   46800   -1793258.7    36828.616    36160.856   -71732.564    27.129131    177.01076   -486.19737    77.213572    89.159246    81.466257    1995.5186 
   46900   -1793309.8    38338.198    39132.075   -69584.123    607.44633    229.34936    423.47214    77.194992    89.137791    81.446653    2005.6554 
   47000   -1793268.7    38790.741    39924.082   -69214.811   -486.37982    325.39713   -406.77768    77.192441    89.134845    81.443961    2014.0769 
   47100   -1793157.3    37997.707    37575.364   -70271.801    194.66734    292.06001    190.82716    77.210745    89.155982    81.463274    2007.0166 
   47200   -1793121.4    34437.916    33324.847   -73064.045     116.6213    732.08835    919.90912    77.241212    89.191163    81.495419    1992.9331 
   47300     -1793211     31842.81    31679.397   -75179.833   -484.28961    11.859825   -412.69844    77.260974    89.213981    81.516269    1991.4896 
   47400   -1793204.1    31870.807    31929.272   -73996.342   -430.88573    -381.9007    622.91479    77.254614    89.206638    81.509559     1993.635 
   47500   -1793158.9    35934.629     35434.57   -71601.996    206.60066    281.68061   -663.39595     77.22626    89.173898    81.479644     1995.278 
   47600   -1793193.5    39820.579    38214.899   -69037.188   -68.849734    200.93077    225.20461     77.19801    89.141277    81.449838    2006.0426 
   47700     -1793221    40005.714    40676.352    -67789.59   -313.62503    72.750032    198.64244    77.189755    89.131745    81.441128    2002.4384 
   47800   -1793297.9    36057.932    37563.176    -70806.78     626.4785   -6.2212365   -477.57046    77.204417    89.148674    81.456597     1996.674 
   47900   -1793237.4    35316.248    34943.282   -71994.263    20.463768    224.98982   -459.15366    77.226912     89.17465    81.480331    1989.5123 
   48000   -1793228.2    34248.738    33357.682   -73275.945    45.219819   -230.47838    802.29508    77.242771    89.192962    81.497064    1999.0633 
   48100   -1793196.2    32810.431    33402.157   -72978.923    721.26436    787.47196   -73.418089    77.244225    89.194641    81.498598    2003.2083 
   48200   -1793159.7    34388.399     34907.24   -71294.222    147.97912   -4.3143814    644.41431    77.232876    89.181537    81.486624    2000.6321 
   48300   -1793195.6    36697.862    36383.927   -70661.128    434.61275   -513.88925    746.01846    77.217808    89.164137    81.470726    2002.0376 
   48400   -1793244.6    36351.901    37877.415   -71414.827    296.32314   -31.645542    530.73908    77.207967    89.152774    81.460344    1992.0142 
   48500   -1793285.8    37307.207    37502.019   -70674.305    523.42254    83.399217    444.30264    77.206596     89.15119    81.458896    1988.2871 
   48600   -1793258.4    37958.886     36337.02   -71875.388    524.80002   -464.16907   -45.287742    77.212479    89.157984    81.465104    1992.9884 
   48700   -1793197.6    36738.964    34836.358   -72354.267   -114.59729   -179.73558   -113.21146    77.221745    89.168684     81.47488    1996.5986 
   48800   -1793200.1    35126.113    34155.378   -72583.192    771.41386     292.1725    1005.1869     77.22987    89.178065    81.483452    2003.3015 
   48900   -1793119.3    34268.685    35238.981   -73438.737    920.49333   -330.16956    1013.1345    77.233193    89.181903    81.486958    1994.8754 
   49000   -1793250.2    36213.026    34396.558   -73033.333   -274.60869   -391.23572   -650.84086     77.23022     89.17847    81.483822    2007.1334 
   49100   -1793266.5    36489.519    37091.141   -72078.181   -359.51148   -36.463694    22.298766    77.222288    89.169311    81.475453    1991.9733 
   49200   -1793259.6    36804.885    37155.679   -71700.312    594.00546    657.03259    776.90181    77.214173     89.15994    81.466891    1991.7491 
   49300   -1793206.1    38030.305    37878.378   -71525.476    381.45304   -38.398344   -200.81331    77.211807    89.157208    81.464394    1997.1794 
   49400     -1793202     37872.05    36445.515   -71360.455   -488.14275    2.2240483   -603.71483    77.217367    89.163628    81.470261     2003.046 
   49500   -1793194.5    35077.308    35386.739   -73231.208    210.35925    588.28503    127.69827    77.227652    89.175504    81.481112    2001.7587 
   49600   -1793130.4    35814.831    35467.227   -73490.175   -247.25503    722.38127   -506.04068    77.234177    89.183039    81.487997    1991.9304 
   49700   -1793214.4    35019.046    34747.199   -73301.279   -733.33275     -50.9323   -394.95277    77.233487    89.182242    81.487269    2001.3348 
   49800   -1793218.5    34890.308    35824.776    -73296.48   -88.854453    445.08038    -374.7677    77.226037    89.173639    81.479408    1992.5649 
   49900   -1793222.1    35766.016    37032.581   -71970.479   -62.988188    629.56333   -615.88685    77.214466    89.160279      81.4672     1984.642 
   50000   -1793261.1    37410.773    37367.176   -70795.664    951.56636   -316.82885     478.8966    77.206937    89.151585    81.459257    1995.5821 
   50083   -1793184.6    38277.699    36244.263   -70383.308    966.82571   -130.09951    747.69236    77.208503    89.153392    81.460908    1998.2772 
Loop time of 7954.01 on 15 procs for 50000 steps with 58365 atoms

Pair  time (%) = 4385.69 (55.138)
Kspce time (%) = 2400.71 (30.1823)
Neigh time (%) = 110.39 (1.38785)
Comm  time (%) = 187.404 (2.3561)
Outpt time (%) = 2.23601 (0.0281117)
Other time (%) = 867.589 (10.9076)

Nlocal:    3891 ave 3918 max 3837 min
Histogram: 3 0 0 0 1 1 1 0 4 5
Nghost:    18519.7 ave 18662 max 18395 min
Histogram: 2 4 0 0 0 5 1 0 0 3
Neighs:    1.48236e+06 ave 1.52364e+06 max 1.4372e+06 min
Histogram: 2 0 1 3 2 0 1 3 2 1

Total # of neighbors = 22235454
Ave neighs/atom = 380.972
Neighbor list builds = 1768
Dangerous builds = 0

unfix   1
fix          2 all nvt temp ${mytemp} ${mytemp} 0.01
fix          2 all nvt temp 2000 ${mytemp} 0.01
fix          2 all nvt temp 2000 2000 0.01
run      50000
PPPM initialization ...
  G vector (1/distance) = 0.308788
  grid = 72 80 75
  stencil order = 5
  estimated absolute RMS force accuracy = 0.00179588
  estimated relative force accuracy = 0.000124717
  using double precision FFTs
  3d grid and FFT values/proc = 58144 28800
Memory usage per processor = 10.2492 Mbytes
Step PotEng Pxx Pyy Pzz Pxy Pxz Pyz Lx Ly Lz Temp 
   50083   -1793184.7    38278.543    36245.123   -70386.465    966.81973   -130.10113    747.68879    77.208503    89.153392    81.460908    1998.2772 
   50100     -1793217    37851.392    37646.398   -71010.945    44.687011   -589.33991   -90.095487    77.208503    89.153392    81.460908    2006.4309 
   50200   -1793172.7    38260.436    38336.152   -70379.211     88.74455    78.325721    309.27292    77.208503    89.153392    81.460908    2005.6882 
   50300   -1793243.6    37304.063     37519.92   -70923.003      661.365   -90.655915    501.44513    77.208503    89.153392    81.460908    2000.6751 
   50400   -1793289.9    38117.523    37644.509   -70555.925    955.21356   -171.33585    245.76679    77.208503    89.153392    81.460908    1997.9469 
   50500   -1793129.7     37727.72    38438.893   -69368.805    487.91633   -199.85383    314.32733    77.208503    89.153392    81.460908    2015.3477 
   50600   -1793180.1    37891.392    38957.583   -70191.528    707.76605     217.0394    557.35951    77.208503    89.153392    81.460908    2012.6388 
   50700   -1793304.1    36829.177    36822.071    -71161.82    573.46028    521.12583    765.63315    77.208503    89.153392    81.460908    1990.3387 
   50800   -1793252.2    37964.307    37531.038   -70354.839      539.905    239.74287    815.72534    77.208503    89.153392    81.460908     1990.094 
   50900   -1793329.9    36342.747    37869.695   -70829.325    100.62125    660.71439   -290.42562    77.208503    89.153392    81.460908    2007.8738 
   51000   -1793226.2    37932.078    37813.096   -70395.297    41.831473    43.295619   -701.68617    77.208503    89.153392    81.460908    2008.1587 
   51100   -1793231.8    37342.669    37424.148   -70820.405    -449.3398   -267.70976   -120.10613    77.208503    89.153392    81.460908    1996.3826 
   51200   -1793161.3    37980.414    37410.193   -71043.185   -340.84385     92.28384    44.931567    77.208503    89.153392    81.460908    1980.7947 
   51300   -1793172.9    36754.461    37553.545   -69835.093    271.04023    509.73084    1340.2197    77.208503    89.153392    81.460908    1999.4437 
   51400   -1793267.2     36504.53    37931.087   -70752.588   -43.848598    623.15301      630.368    77.208503    89.153392    81.460908    2000.6661 
   51500   -1793168.6    38842.908    37116.871   -69228.007    150.99873     528.3765    154.03398    77.208503    89.153392    81.460908    2001.4204 
   51600   -1793232.9    37252.217    38147.305   -70332.511   -196.19949    197.70396    903.02073    77.208503    89.153392    81.460908    2010.5241 
   51700   -1793320.9    36181.327     37710.89   -70207.957    687.60086   -103.28615    -94.80255    77.208503    89.153392    81.460908    1987.7559 
   51800   -1793158.3    38284.756     36022.52   -69722.129   -128.08045   -358.13109    730.33035    77.208503    89.153392    81.460908    2000.4386 
   51900   -1793208.7    37404.158    37991.414   -69957.543   -313.53523    412.92693    488.47282    77.208503    89.153392    81.460908    2009.9225 
   52000   -1793303.7    37217.909    36505.773   -71241.972    30.916453    -246.0591    85.344434    77.208503    89.153392    81.460908    1998.4387 
   52100   -1793261.7    37620.179    37423.256   -71067.619    59.512633    159.03658    489.42219    77.208503    89.153392    81.460908    2002.2935 
   52200   -1793156.6    37732.145      37461.5   -70098.483   -28.509088   -192.46194   -204.96615    77.208503    89.153392    81.460908    1997.7342 
   52300   -1793171.7    36436.457    39061.719   -70164.768     -83.8494    270.86757   -75.962185    77.208503    89.153392    81.460908     2001.737 
   52400   -1793243.4    37478.162    37007.873   -70642.273   -722.41875   -196.38287    2.3275599    77.208503    89.153392    81.460908    2007.4991 
   52500   -1793246.9     38041.85     37606.65   -69413.012    116.69307   -154.59666     605.7199    77.208503    89.153392    81.460908    2000.0055 
   52600     -1793185    37498.723    37755.511    -69797.95   -471.34033   -308.03048   -735.15199    77.208503    89.153392    81.460908    2006.6208 
   52700   -1793249.1    37600.985    37837.602   -70411.327    445.34656    865.99318   -365.30033    77.208503    89.153392    81.460908    2007.5683 
   52800   -1793237.3    38074.747    36022.638   -70879.946    21.511802   -40.813072   -849.74554    77.208503    89.153392    81.460908    1990.1558 
   52900   -1793112.6    38553.946    37252.904   -69816.771    263.78838   -84.539285   -128.62676    77.208503    89.153392    81.460908    1994.8469 
   53000   -1793283.9    36554.563    37895.344   -69301.407    -112.7784    236.66972    239.36824    77.208503    89.153392    81.460908    2008.5593 
   53100   -1793180.5    36817.985    38709.778   -69269.159   -170.99106   -690.34917   -29.881245    77.208503    89.153392    81.460908     1989.153 
   53200   -1793211.2    36630.759     37063.37   -69626.932   -333.05198    330.79446   -95.460938    77.208503    89.153392    81.460908    2006.1346 
   53300   -1793159.2    37373.574    37974.264   -68060.834   -239.04171    309.08588   -239.27371    77.208503    89.153392    81.460908    2005.2995 
   53400   -1793334.6    37812.495    37018.388   -68836.836   -536.36049    442.30732    230.89526    77.208503    89.153392    81.460908    2010.3195 
   53500   -1793230.1    36630.293    36911.732   -69477.019    112.70088    2.8192729     105.2267    77.208503    89.153392    81.460908      1998.88 
   53600   -1793252.6    36510.224    36469.816   -69634.403   -430.83247   -282.74502   -203.12047    77.208503    89.153392    81.460908     2002.713 
   53700     -1793215    37072.477    37167.781   -70494.797   -180.16177    487.63105    622.94323    77.208503    89.153392    81.460908    1999.9454 
   53800   -1793231.2    37760.928    36991.008   -69887.398    714.61924   -57.642014    93.683878    77.208503    89.153392    81.460908    1996.1184 
   53900   -1793266.3    37354.307    38375.068   -71366.104   -521.64612    248.42979    16.213313    77.208503    89.153392    81.460908     2007.661 
   54000   -1793278.7    37853.557    37218.019   -71438.178    75.730766   -229.04394    302.89611    77.208503    89.153392    81.460908    1991.0858 
   54100     -1793156    37968.391     38717.42   -70566.254   -887.78913    686.84725   -691.87617    77.208503    89.153392    81.460908    1996.4388 
   54200   -1793187.6    38047.789    37336.693   -71289.913   -798.99094    117.88789   -401.87515    77.208503    89.153392    81.460908    2002.5765 
   54300     -1793281    37672.721    36963.798   -71336.259   -456.82665   -449.41603   -698.36541    77.208503    89.153392    81.460908    2001.8972 
   54400   -1793211.7    37174.669    38011.024   -70860.875   -487.55005   -227.19421   -460.75886    77.208503    89.153392    81.460908    1994.6178 
   54500   -1793267.4    37629.399    37353.789   -70526.253   -363.52811    336.80975   -67.719535    77.208503    89.153392    81.460908    1998.3748 
   54600   -1793149.9    37974.005    38418.524   -68466.557   -58.713282    163.62394   -95.298276    77.208503    89.153392    81.460908    2004.9127 
   54700   -1793194.6    35861.273    36730.474   -70777.171   -242.91333    766.99475   -120.55994    77.208503    89.153392    81.460908    1992.2079 
   54800   -1793191.2    37785.197    36712.558   -70060.396     212.4526    651.47322   -329.49616    77.208503    89.153392    81.460908    1998.1981 
   54900   -1793279.4    37081.504     37264.64    -69863.56   -298.47002    426.97059   -17.104718    77.208503    89.153392    81.460908     2005.356 
   55000   -1793243.3    36158.613    37042.759   -70343.852    384.64682    628.99044    813.33236    77.208503    89.153392    81.460908    1994.6083 
   55100   -1793306.4      36609.5    36186.999   -70710.989   -213.14135   -494.80849    85.769909    77.208503    89.153392    81.460908    2001.7153 
   55200     -1793185    38617.217     37643.69   -68925.235    897.11013   -80.503817   -178.68521    77.208503    89.153392    81.460908    2013.8465 
   55300   -1793221.3    37156.609      36946.3   -70008.304   -406.31068     948.5115    266.55594    77.208503    89.153392    81.460908    1998.4229 
   55400   -1793297.5    35814.395      36159.9    -70860.43   -484.29326    318.02134   -365.45294    77.208503    89.153392    81.460908    1989.9035 
   55500   -1793216.6    36133.773    38460.285   -69985.126   -427.35642   -160.23672   -327.97612    77.208503    89.153392    81.460908    2007.8434 
   55600   -1793197.8    38103.248    37861.468   -70572.572   -347.74187   -450.27599   -243.79907    77.208503    89.153392    81.460908    2009.8804 
   55700   -1793222.1    37323.612    37226.429   -71389.954   -211.35307    339.88424    115.76903    77.208503    89.153392    81.460908    1998.6906 
   55800   -1793230.2    36388.454    38733.691   -71324.642   -42.059758    601.51245   -494.82873    77.208503    89.153392    81.460908    2008.1118 
   55900   -1793213.1    36650.787    36853.345   -71061.409    103.54411   -360.65041    385.10881    77.208503    89.153392    81.460908     1985.558 
   56000   -1793140.8    38376.879    38773.032   -70111.672   -409.62644    371.54909   -456.45945    77.208503    89.153392    81.460908    2008.2142 
   56100   -1793146.1    38494.683    37070.147   -70938.554   -460.44502   -374.28614    -97.21314    77.208503    89.153392    81.460908    2004.1269 
   56200   -1793149.3    37486.307    38230.421   -70007.894   -1331.8317    43.226138     372.0678    77.208503    89.153392    81.460908    1984.7454 
   56300   -1793180.2     36898.24    36975.428   -70410.233     410.1252     953.1366    480.23609    77.208503    89.153392    81.460908     1998.212 
   56400   -1793272.8    36554.324    36685.357   -70535.607    315.35893   -18.556308    694.46349    77.208503    89.153392    81.460908    1993.7081 
   56500   -1793290.2    37837.194     37710.18   -71471.239    205.38981   -433.94133    145.34893    77.208503    89.153392    81.460908    1992.2904 
   56600   -1793222.1    38999.073    37047.691   -71347.577    166.48203    191.52742    636.51542    77.208503    89.153392    81.460908    2002.9726 
   56700   -1793315.1    37162.352    37243.475   -71974.877     279.7352   -390.36267    801.05832    77.208503    89.153392    81.460908    2003.1542 
   56800     -1793148    37942.504    38773.438   -70411.274   -337.17923     595.5627    -39.26701    77.208503    89.153392    81.460908    1989.7947 
   56900   -1793264.1    37243.101    37633.802   -70792.399   -185.45152    41.161526    408.20923    77.208503    89.153392    81.460908    1999.9241 
   57000   -1793277.6    36530.711    36700.435   -70309.952    13.421806   -192.70985    38.712216    77.208503    89.153392    81.460908    2001.8512 
   57100   -1793232.7    36357.496     38098.77   -70780.728    337.81779   -181.85447    173.35567    77.208503    89.153392    81.460908    2010.7126 
   57200   -1793157.8    38393.632    38062.299    -70444.71    766.97939    246.66886   -364.78468    77.208503    89.153392    81.460908    1993.6852 
   57300   -1793240.1     37517.36    37369.209   -71101.058   -625.79974   -119.69469   -464.35835    77.208503    89.153392    81.460908    1997.9423 
   57400   -1793355.7    36762.111    37437.694   -71795.421   -729.04911   -498.37747   -401.34069    77.208503    89.153392    81.460908    2003.4642 
   57500   -1793235.8    38489.628    37348.978   -70463.045   -254.70877   -206.89358     346.2345    77.208503    89.153392    81.460908    2009.8865 
   57600   -1793208.6    38177.455    36867.722   -70451.383   -136.74178    97.028716     290.5498    77.208503    89.153392    81.460908    1998.3652 
   57700   -1793196.2      37903.4    37008.107   -70292.969   -1112.4158   -841.39374   -292.54014    77.208503    89.153392    81.460908    2007.6826 
   57800   -1793196.5     38093.27    37727.359   -70433.271   -140.06731   -104.48977    173.52207    77.208503    89.153392    81.460908    1994.4617 
   57900     -1793231    38335.616    36932.622   -70420.903    1010.7746    410.27213    537.95472    77.208503    89.153392    81.460908    2003.1864 
   58000   -1793217.5    37645.141    37610.717   -70430.598   -446.40889   -597.10321    313.38094    77.208503    89.153392    81.460908     2001.956 
   58100   -1793277.7    36990.746    38155.018   -70623.252    -469.7358   -474.04672   -103.52102    77.208503    89.153392    81.460908    2009.1177 
   58200   -1793130.9    37946.448    37940.907    -69939.12   -803.39381    721.17225   -909.90173    77.208503    89.153392    81.460908    2004.2317 
   58300   -1793260.8    37620.949    37119.206   -70812.844   -154.84623    244.45925   -20.165585    77.208503    89.153392    81.460908    2000.3322 
   58400   -1793234.2    37743.733    37187.544   -70664.799     251.0237    26.830486   -453.89748    77.208503    89.153392    81.460908    1997.8824 
   58500   -1793172.3    38097.098    37945.403   -69816.378    -672.0702    208.12779   -986.63974    77.208503    89.153392    81.460908    1996.5366 
   58600   -1793213.8    37999.747    36675.377   -70478.639   -354.60591    335.66226   -310.22038    77.208503    89.153392    81.460908    1999.9926 
   58700   -1793277.8     37682.15     36763.85   -71561.806   -266.03057    1006.4041   -59.688761    77.208503    89.153392    81.460908    1998.3566 
   58800     -1793263    37402.892    38470.638    -70987.86   -765.90091     460.9763   -344.28875    77.208503    89.153392    81.460908    2009.7979 
   58900     -1793297     37050.13     37844.89   -70476.673   -805.94581    -165.8006    436.20204    77.208503    89.153392    81.460908    2014.5411 
   59000   -1793198.4    38006.651    37593.728   -69437.057    37.943417    13.426519   -86.597503    77.208503    89.153392    81.460908     2007.999 
   59100   -1793220.9    36611.178     36926.29   -70277.524     146.6842    1395.5539   -338.14806    77.208503    89.153392    81.460908     1998.885 
   59200   -1793202.8    36730.847    37780.354   -69901.867    440.00377     341.9241    219.88813    77.208503    89.153392    81.460908      2000.02 
   59300   -1793207.5    38664.814     36371.01   -70472.655   -166.81081   -115.92923   -72.838391    77.208503    89.153392    81.460908    1996.4477 
   59400   -1793224.3    38019.266    37499.387   -69576.267    94.754499   -849.18034    898.03237    77.208503    89.153392    81.460908    2004.2774 
   59500   -1793229.3    38413.863    37833.815   -70406.487   -307.82889    57.132161    51.679568    77.208503    89.153392    81.460908    2007.2658 
   59600   -1793228.3    38590.666    38194.543    -71474.22    -354.1039   -442.11215   -214.60313    77.208503    89.153392    81.460908      1994.24 
   59700   -1793221.1    38579.136    37984.323   -70936.558   -442.57202    -739.9061   -386.36949    77.208503    89.153392    81.460908    2001.3287 
   59800   -1793234.9    37476.021    38108.375   -71011.351    -230.6589   -409.19159   -181.86227    77.208503    89.153392    81.460908    1994.5259 
   59900   -1793276.6    36826.066     38076.73   -70459.291   -57.732323   -542.47439   -998.85283    77.208503    89.153392    81.460908    1990.1927 
   60000   -1793270.2    37536.366     37400.79   -70267.381    341.93698    120.81158    212.42544    77.208503    89.153392    81.460908    2010.4224 
   60100   -1793316.3    38255.659    36513.247   -71029.709   -108.33319   -458.86637     74.76994    77.208503    89.153392    81.460908    2009.8476 
   60200     -1793131    37794.472    37915.971   -70507.888   -226.47117    575.37563    174.88203    77.208503    89.153392    81.460908    1992.0959 
   60300   -1793253.7    37909.079    37718.185   -70653.945    47.733309    388.48241   -122.45926    77.208503    89.153392    81.460908    2011.0428 
   60400   -1793137.7    38725.175    38075.654     -70232.3    368.69984    10.376902    210.26103    77.208503    89.153392    81.460908    2008.1038 
   60500   -1793327.7    37152.249    37499.087   -71118.429    5.6397007    -174.3362    598.68262    77.208503    89.153392    81.460908    2008.1103 
   60600   -1793306.9    36983.286    37366.069   -70271.637   -654.19999   -270.77097   -126.38132    77.208503    89.153392    81.460908     2005.585 
   60700   -1793220.7    36859.932    38135.344   -71090.861    465.05325    830.33464    184.38721    77.208503    89.153392    81.460908    1993.6727 
   60800   -1793203.5    38511.853    37167.948   -70913.501   -59.055466    570.58251   -79.803807    77.208503    89.153392    81.460908    1993.4895 
   60900   -1793212.3    38123.451    37690.369   -70270.111   -526.45332    67.450903   -619.22671    77.208503    89.153392    81.460908    2002.6856 
   61000   -1793177.7     37787.92    37765.537   -71113.557   -404.01449    190.49769   -1157.1297    77.208503    89.153392    81.460908    1983.4841 
   61100   -1793175.1    38986.426    37530.603   -69669.025    412.34141   -320.20871    581.27589    77.208503    89.153392    81.460908    2009.6928 
   61200   -1793245.2     38302.94    36807.381   -70733.279   -524.27985    248.10102    15.777721    77.208503    89.153392    81.460908    1999.9129 
   61300   -1793205.8    37675.303    37252.421   -70338.713     437.3783   -404.34965    356.54805    77.208503    89.153392    81.460908    1987.9976 
   61400   -1793189.1    37390.621    36967.453   -69010.115    -274.8873   -85.770365    -603.9814    77.208503    89.153392    81.460908    1995.8668 
   61500     -1793278    37927.964    36319.916   -70791.434    527.45354   -1099.0418     460.1482    77.208503    89.153392    81.460908     1998.479 
   61600   -1793243.9    37180.547    37843.846   -70169.473    366.04027    348.76392    338.51911    77.208503    89.153392    81.460908    1996.8113 
   61700   -1793249.1     37306.29    37810.988   -70660.432    101.99066   -730.47327     295.6366    77.208503    89.153392    81.460908    2000.0839 
   61800   -1793150.7    38890.019    38637.867   -69517.743   -128.00143   -261.78236     712.7348    77.208503    89.153392    81.460908    2011.7115 
   61900   -1793271.4    36945.065    37090.016   -71360.979    314.58539    868.71181   -241.64464    77.208503    89.153392    81.460908    1992.3204 
   62000   -1793168.4     38216.16    37709.131    -70735.57   -241.96126   -501.96864   -378.24428    77.208503    89.153392    81.460908    1996.2412 
   62100   -1793268.7    37573.263    37081.515   -70472.753    16.231524   -46.825659    407.73598    77.208503    89.153392    81.460908    2011.4579 
   62200   -1793190.6    37640.021    37569.233   -70823.509    -177.3623   -561.56483    443.76413    77.208503    89.153392    81.460908    2010.0442 
   62300   -1793224.8    38678.348     36595.72   -71046.135     404.2938    -198.8538   -374.27962    77.208503    89.153392    81.460908    1991.3154 
   62400   -1793211.8    37570.776    39499.642   -69107.471   -386.12568   -296.86179   -714.38953    77.208503    89.153392    81.460908    1992.5947 
   62500   -1793262.8    36699.972    37521.466   -71050.565   -833.19741    -321.3843   -175.27386    77.208503    89.153392    81.460908    1994.4216 
   62600   -1793323.4    38519.056    35884.629   -71571.617   -186.28191   -145.99759    70.543725    77.208503    89.153392    81.460908    2002.0135 
   62700   -1793246.8    38489.692    36870.082   -70883.085    -870.0538   -548.74944   -50.571307    77.208503    89.153392    81.460908    2005.1764 
   62800   -1793264.3    36913.839    38588.359   -71456.103     165.9923    485.10885     853.3914    77.208503    89.153392    81.460908    1992.1715 
   62900   -1793218.9    37971.785    37662.351   -70358.839    249.83966    654.44905    306.78284    77.208503    89.153392    81.460908    1996.8181 
   63000     -1793179    38522.888    37544.289    -70306.28    697.02949   -665.76867    -4.471252    77.208503    89.153392    81.460908    2000.4027 
   63100   -1793171.8    38481.856    38931.911   -70934.555     191.9651   -382.92242   -385.04079    77.208503    89.153392    81.460908    1997.3697 
   63200   -1793218.4    37836.446    37636.345   -70416.919    282.33868      357.623   -206.63883    77.208503    89.153392    81.460908     2007.638 
   63300   -1793250.2    36827.872    37686.967   -71196.432    223.66531    520.50246    170.63046    77.208503    89.153392    81.460908    2000.1973 
   63400     -1793260     38020.46    38741.449   -69909.439    200.55065    20.628079    524.86382    77.208503    89.153392    81.460908     2005.712 
   63500   -1793241.9    38318.611    37254.728   -70464.425    604.28623   -388.61129    273.89152    77.208503    89.153392    81.460908    2003.1201 
   63600   -1793144.7    38033.306    37905.034   -70603.454   -331.40637    214.23076    79.329526    77.208503    89.153392    81.460908    1997.7341 
   63700   -1793247.5    37315.137     36779.92   -71903.838   -219.74117    481.26455    722.66654    77.208503    89.153392    81.460908    1990.4906 
   63800   -1793203.9    37466.885    37980.405   -70925.407    405.70047    975.30434    301.37075    77.208503    89.153392    81.460908    1987.5923 
   63900   -1793310.7    37280.219    37053.944   -71171.161    825.13794    -726.3446   -24.815323    77.208503    89.153392    81.460908    1993.5992 
   64000   -1793285.6    35921.065    37791.509   -70719.895   -798.05968    550.99452    506.74746    77.208503    89.153392    81.460908     2004.547 
   64100   -1793226.5    37554.847    38969.661   -70333.781   -263.22191    -99.06423     176.4407    77.208503    89.153392    81.460908    1996.7336 
   64200   -1793274.5    36581.057     36898.68   -70902.344    664.05122    636.56924   -159.82762    77.208503    89.153392    81.460908    2009.4064 
   64300   -1793176.6     37786.37    37604.893   -72108.546   -660.74726   -20.571121    443.89053    77.208503    89.153392    81.460908    2008.8868 
   64400     -1793232    37080.989    37845.245    -71161.56    533.00039   -123.82981   -464.77716    77.208503    89.153392    81.460908    2006.4615 
   64500   -1793139.2     38021.76    38296.614    -70556.63    154.10873    531.55404    422.45882    77.208503    89.153392    81.460908    1993.8585 
   64600   -1793240.6    38262.463    37492.763   -71057.069    610.83284    -563.2563    189.51224    77.208503    89.153392    81.460908    2000.4215 
   64700   -1793163.6    38775.939    37240.305   -70848.491    497.00907    -34.21084   -511.88723    77.208503    89.153392    81.460908    2011.1974 
   64800   -1793215.1    38376.458    37934.193   -70248.408    271.85566   -382.31933    206.88189    77.208503    89.153392    81.460908    2007.7024 
   64900   -1793247.4    37995.214    37485.879   -71105.895     574.3383   -254.16256      259.198    77.208503    89.153392    81.460908    1996.0314 
   65000   -1793242.4    38310.064    37487.377   -71055.658    725.08795   -763.80703   -143.89519    77.208503    89.153392    81.460908    1998.6733 
   65100   -1793183.8    38290.287    37797.446   -70216.176   -524.82308   -106.95651    126.98046    77.208503    89.153392    81.460908     1999.972 
   65200   -1793162.7    38440.756    38209.894   -69578.231   -447.13613   -945.41151   -107.86852    77.208503    89.153392    81.460908    2016.3332 
   65300   -1793260.4    37673.299    36910.801   -71866.776    758.61442    712.06926    998.09782    77.208503    89.153392    81.460908    1999.1401 
   65400   -1793229.9     36744.75    37613.807   -70472.174    437.83453    48.530542    186.85753    77.208503    89.153392    81.460908     1992.904 
   65500   -1793178.6    38123.055    38009.388   -71011.244   -47.629203    15.506575   -30.585388    77.208503    89.153392    81.460908    1996.5239 
   65600   -1793245.2    37007.337    39242.801   -70726.889    93.730339    674.04563   -276.31515    77.208503    89.153392    81.460908    2002.1987 
   65700     -1793160    37713.746    37927.042   -70281.883    65.010725    128.48828    116.18568    77.208503    89.153392    81.460908     1996.161 
   65800   -1793221.4    38406.413    38264.856   -70067.549    1088.9936   -278.89036    314.87005    77.208503    89.153392    81.460908    2002.0391 
   65900     -1793255    37861.883    37833.055   -70540.989   -576.28256    951.16252     426.5852    77.208503    89.153392    81.460908    2004.3169 
   66000   -1793224.7    38192.779    37351.581   -70170.178    438.38454     326.0175   -389.68097    77.208503    89.153392    81.460908    2012.3416 
   66100   -1793159.2    37607.012    37688.326   -69694.398    889.48469   -480.57449    263.02934    77.208503    89.153392    81.460908     2011.612 
   66200   -1793271.2    37247.672    37092.404   -70801.977   -35.504718   -196.69386   -251.07783    77.208503    89.153392    81.460908    1998.1429 
   66300   -1793199.8    37900.309    37104.104   -69379.292    307.45401    449.85954    572.18228    77.208503    89.153392    81.460908    1993.8084 
   66400   -1793213.7    36915.109     37943.66   -69755.262    1119.1729    128.32531    130.10952    77.208503    89.153392    81.460908    2006.8769 
   66500   -1793299.9    36992.311    37679.825   -70863.819   -130.32675    677.95277    355.28177    77.208503    89.153392    81.460908     2004.493 
   66600   -1793252.9    37175.741    38087.319   -70357.373   -72.892214    545.10337   -831.56451    77.208503    89.153392    81.460908    2006.1377 
   66700   -1793244.6    38857.911    36819.426    -71159.13    315.37494    68.346338   -171.26817    77.208503    89.153392    81.460908    2009.6662 
   66800   -1793203.4    38910.439    38575.571   -70261.063    436.14071   -266.20135    838.33068    77.208503    89.153392    81.460908    2000.9975 
   66900   -1793300.9    37756.142    37416.766   -70443.363   -66.460437    487.73204   -608.48696    77.208503    89.153392    81.460908    1995.1518 
   67000   -1793266.4    37194.419    37397.292   -70938.727   -313.70338    120.05931   -81.968776    77.208503    89.153392    81.460908    1993.4734 
   67100   -1793220.1    37659.869    37030.301   -71082.596    1307.1651   -257.84059    469.81217    77.208503    89.153392    81.460908    1997.5668 
   67200   -1793201.5    36906.855    37002.889   -70490.261    49.492229   -493.31304    184.25273    77.208503    89.153392    81.460908    2000.0329 
   67300   -1793241.2    37361.478    37195.444   -71345.027   -246.09528   -398.11764   -302.22673    77.208503    89.153392    81.460908    1989.1924 
   67400   -1793233.3    37744.807     37460.57   -71565.132   -90.029715   -209.60549   -506.22555    77.208503    89.153392    81.460908    2009.4548 
   67500     -1793353    36525.366    37059.383   -71702.409    -354.3853   -106.05787   -259.69196    77.208503    89.153392    81.460908    1991.1995 
   67600   -1793214.2    37310.575    36890.147   -69891.554    741.53145   -456.53151    62.806369    77.208503    89.153392    81.460908    1986.4927 
   67700   -1793172.9    38538.866    36716.979    -71116.66    568.97355    -1282.274   -119.41759    77.208503    89.153392    81.460908    1981.2332 
   67800   -1793296.8    37912.855    37653.921   -70724.404   -38.909158   -696.37054    381.35852    77.208503    89.153392    81.460908    2003.8409 
   67900   -1793244.7     37823.12    37481.887   -70187.484    651.18961   -196.76253    105.10014    77.208503    89.153392    81.460908     2000.679 
   68000   -1793318.3    37585.685    36125.352   -71183.607    168.43945     88.39003    797.85877    77.208503    89.153392    81.460908    2001.7773 
   68100   -1793234.1    38384.462    37236.423   -69759.616   -279.59389   -956.43255    305.26885    77.208503    89.153392    81.460908    2004.9828 
   68200   -1793222.4    36364.643    36069.348   -70725.955   -65.054441   -342.45923    222.41473    77.208503    89.153392    81.460908    1982.1403 
   68300   -1793129.8    37887.874    38669.744   -70290.213    1179.2429   -40.091146    217.32736    77.208503    89.153392    81.460908    2005.4512 
   68400   -1793355.4    37767.038     37276.74   -71644.835   -24.972877   -195.91497   -93.306009    77.208503    89.153392    81.460908    2001.0844 
   68500   -1793198.2    38181.166      36176.6   -70977.644   -235.71655   -230.46217    217.05293    77.208503    89.153392    81.460908     1999.774 
   68600   -1793191.8    37872.859    38012.383   -70917.374   -440.20852   -291.29188    -527.8926    77.208503    89.153392    81.460908    1988.1035 
   68700   -1793189.9    37845.989    37845.802   -70196.095    427.75897    169.44966    68.500498    77.208503    89.153392    81.460908     2002.305 
   68800   -1793311.3    36717.002    37479.023   -71436.429    140.58994   -43.586008    550.43049    77.208503    89.153392    81.460908    1996.4619 
   68900   -1793232.8    37958.705    37597.783   -70520.085   -909.97913    748.47883   -150.10545    77.208503    89.153392    81.460908    2002.3465 
   69000   -1793218.1    37842.172    38195.054   -70927.972    672.14674     50.44627    490.31147    77.208503    89.153392    81.460908    2004.9901 
   69100   -1793131.8    37672.484    38734.507   -69999.483    258.47067    116.23052    330.51707    77.208503    89.153392    81.460908    1997.4714 
   69200   -1793273.3    38976.417    37764.961    -70762.31     289.3037   -447.84958   -348.65765    77.208503    89.153392    81.460908    1990.9345 
   69300   -1793236.1    38371.809    37379.385   -70388.401    410.24582   -3.6654699   -225.92627    77.208503    89.153392    81.460908     1998.112 
   69400     -1793218    37282.586    38558.379    -70384.25     675.8459   -19.720923    630.00826    77.208503    89.153392    81.460908    2005.1393 
   69500   -1793307.4    38273.277    36647.425   -70791.888    1037.3697   -282.12391    237.55887    77.208503    89.153392    81.460908    1995.6348 
   69600   -1793306.7    38369.842    36835.478   -70412.336    62.102613   -47.285986   -308.67839    77.208503    89.153392    81.460908    2002.0285 
   69700   -1793197.2    37376.164     37861.04   -68541.802    498.57555  -0.39309847    485.17412    77.208503    89.153392    81.460908    2000.4241 
   69800   -1793257.9    37270.047    37757.088   -70288.276    21.930509    870.41862  -0.54638526    77.208503    89.153392    81.460908    2007.7087 
   69900   -1793203.9    37254.157    36956.757    -69146.76    848.82464    326.74821    757.00592    77.208503    89.153392    81.460908    1998.0238 
   70000   -1793223.6    37816.351    37337.258   -68741.973   -272.16934    565.44411   -680.18586    77.208503    89.153392    81.460908    2000.5738 
   70100   -1793260.4    37652.008    37487.896   -69967.591   -445.63172    538.53597   -238.93287    77.208503    89.153392    81.460908    2001.6005 
   70200   -1793275.1    36226.414    37398.169   -71407.414   -637.56304    559.01071    -490.2274    77.208503    89.153392    81.460908    1992.3976 
   70300   -1793252.1    37036.129    36885.075   -70137.483    257.58488    726.62238    1084.5845    77.208503    89.153392    81.460908    2000.3774 
   70400   -1793252.4    38107.795     36888.48   -70224.491   -365.08249   -370.87567    270.83475    77.208503    89.153392    81.460908    1997.1489 
   70500   -1793215.7    37040.295    37787.277   -70284.962    39.352674    223.14368    154.95874    77.208503    89.153392    81.460908    1992.6143 
   70600   -1793134.3      38385.5    37774.856   -69995.491     338.0101    156.46813    902.50493    77.208503    89.153392    81.460908    1992.8829 
   70700   -1793274.7    37760.459    37094.741   -71269.933     284.0423   -30.350617    503.51148    77.208503    89.153392    81.460908    1998.0673 
   70800   -1793192.9    38314.926    37488.813   -70108.034   -164.02404   -149.79838   -306.11108    77.208503    89.153392    81.460908    1992.1191 
   70900   -1793242.9    37626.448    37359.362    -70815.85   -958.37491     501.6566   -26.761667    77.208503    89.153392    81.460908     2003.536 
   71000   -1793137.6    37726.177    39466.308     -69693.4    85.338195    392.33372    447.39681    77.208503    89.153392    81.460908    1997.9185 
   71100   -1793120.2    38555.794    38098.937   -69803.064    823.44525   -295.73797   -50.947053    77.208503    89.153392    81.460908    2003.6667 
   71200   -1793171.1    38098.868    37531.881   -69321.478    554.17986   -641.09003   -184.71471    77.208503    89.153392    81.460908    1999.7663 
   71300   -1793181.3    38598.295    37379.091   -69374.703    -461.1405   -188.14144   -412.08558    77.208503    89.153392    81.460908    1991.6993 
   71400   -1793183.6    38016.758    37418.588   -69946.207   -281.14683   -133.73386   -193.50193    77.208503    89.153392    81.460908    1996.0619 
   71500   -1793175.8     37954.83    38878.569   -70738.868    147.93997    151.05669   -242.29182    77.208503    89.153392    81.460908    1996.6466 
   71600   -1793246.1    36735.079    38127.317   -70350.906    294.61936   -190.75783    580.05994    77.208503    89.153392    81.460908    2006.1952 
   71700   -1793192.4    36927.958    38337.837   -70158.556   -990.62721     471.3634   -381.28821    77.208503    89.153392    81.460908    2001.1445 
   71800   -1793181.3    37004.443    38014.919   -69088.456    520.34192    674.94997    363.48571    77.208503    89.153392    81.460908    1997.9615 
   71900   -1793259.9    37857.776    37706.646   -70220.109    284.71246   -439.97369    -187.1518    77.208503    89.153392    81.460908    2013.2202 
   72000   -1793218.7    36721.593    37061.332   -70516.761   -391.19413    440.51001   -99.139262    77.208503    89.153392    81.460908    2004.1734 
   72100   -1793231.4    37427.893    37273.763   -70188.069    135.41696   -56.495864   -567.36761    77.208503    89.153392    81.460908    1989.0429 
   72200   -1793275.2    35947.083    37346.382   -70351.133   -116.79075    384.62534    566.59843    77.208503    89.153392    81.460908    1999.6383 
   72300     -1793314    36423.324    36659.066   -70008.342   -259.37744   -233.25964    667.04516    77.208503    89.153392    81.460908     1997.544 
   72400   -1793252.5    38117.932    36545.751   -70332.423    712.61052    68.086192   -111.52015    77.208503    89.153392    81.460908    2001.7574 
   72500   -1793297.2    36429.213      36221.1   -70903.969    330.95081   -209.33262   -16.001393    77.208503    89.153392    81.460908     1995.777 
   72600   -1793214.5    37668.759    37598.366   -70234.326    498.32923    -93.14793    527.24633    77.208503    89.153392    81.460908    2005.4335 
   72700   -1793287.6    36847.562    37360.246   -70738.629    598.76255   -606.57151    -79.21017    77.208503    89.153392    81.460908    2001.7235 
   72800   -1793160.1    37348.638    38078.965   -70134.836    252.33156    -91.93937    100.17747    77.208503    89.153392    81.460908    2000.6635 
   72900   -1793151.1     38822.43    36652.483   -69088.123   -380.06257    -1043.649   -890.48199    77.208503    89.153392    81.460908    1998.8817 
   73000   -1793227.3    39088.569    36902.809   -69759.741    172.37479   -508.85284   -263.24173    77.208503    89.153392    81.460908    1990.2321 
   73100     -1793186     38095.54    37077.139   -70673.741   -572.66231   -383.68178    279.01898    77.208503    89.153392    81.460908    2004.1466 
   73200   -1793216.1    37766.025    37213.453   -70085.855     538.3369   -307.07495    275.46962    77.208503    89.153392    81.460908    1994.9979 
   73300   -1793244.6     38337.63      36302.4   -70676.123    74.188817    32.399628   -151.04405    77.208503    89.153392    81.460908    2003.8968 
   73400     -1793311    36810.555    35951.198   -71612.624     208.8306   -357.16349    -1147.949    77.208503    89.153392    81.460908    2003.8722 
   73500   -1793193.5    37820.592    38649.684   -71154.833   -93.432089    131.11545   -208.72287    77.208503    89.153392    81.460908     2015.474 
   73600   -1793227.4     38609.65    37266.625   -70329.842    136.62561   -784.27819     468.7746    77.208503    89.153392    81.460908    2007.0823 
   73700   -1793220.4    37777.899    37147.257   -71297.239   -621.50879   -1364.3651    -683.4931    77.208503    89.153392    81.460908    1989.8167 
   73800   -1793149.6    38834.134    38378.408   -69843.051    360.25471    6.2311106    741.39518    77.208503    89.153392    81.460908    1993.4823 
   73900   -1793213.2    37327.638    38526.917    -70609.32    79.503924    269.34823     353.4971    77.208503    89.153392    81.460908    1998.3782 
   74000   -1793290.2    36337.219    37211.931   -71734.167   -127.34228    331.27262     658.5975    77.208503    89.153392    81.460908    2003.0128 
   74100   -1793239.6    37888.087     37667.16   -70389.766   -160.10504    264.11256    211.91519    77.208503    89.153392    81.460908    1997.5936 
   74200   -1793182.9    37950.793    37889.222   -69617.971   -532.19964   -253.42117      101.692    77.208503    89.153392    81.460908    2005.9892 
   74300   -1793267.4    38346.566    37132.187   -71237.269    122.76822   -268.29818   -161.99353    77.208503    89.153392    81.460908     1998.825 
   74400   -1793202.1    37096.874    37903.654   -69775.525   -415.73815   -243.93326   -1.0170758    77.208503    89.153392    81.460908    2008.2851 
   74500   -1793231.2     36676.44    36955.084   -70931.221   -644.20058    385.18419   -341.02909    77.208503    89.153392    81.460908    1991.2806 
   74600   -1793143.2    38001.941     37941.13   -70779.947   -329.10424    105.60377   -198.20163    77.208503    89.153392    81.460908    2001.5041 
   74700   -1793203.7    38666.183    38143.082   -71006.884     493.5508    -101.2331    744.84368    77.208503    89.153392    81.460908    2002.4513 
   74800   -1793198.8    38140.212    37381.004   -70521.166    -351.6666   -150.09355   -256.95498    77.208503    89.153392    81.460908    1996.9788 
   74900   -1793280.3    37061.537    37096.074   -71017.098   -71.038078   -312.48693    91.810851    77.208503    89.153392    81.460908    2004.0434 
   75000   -1793304.3    37615.786    36947.003   -71132.879   -278.33437   -67.327273   -714.66701    77.208503    89.153392    81.460908    2002.9865 
   75100   -1793208.9     38341.57    36750.937   -69262.301    271.83982    35.462328    244.96292    77.208503    89.153392    81.460908    1994.9323 
   75200   -1793264.2    37148.642    35408.202   -70963.267   -341.37883    15.221232   -1220.1061    77.208503    89.153392    81.460908     1990.948 
   75300   -1793230.4    36449.723    39028.237   -69962.217    765.18661    497.23865    712.43941    77.208503    89.153392    81.460908    1991.5774 
   75400   -1793135.4    37784.199    36382.916   -69628.381   -362.91165   -807.72096   -196.48687    77.208503    89.153392    81.460908    1997.4811 
   75500   -1793203.8    38090.037    36706.541   -69754.653    164.09776   -616.82825    202.83771    77.208503    89.153392    81.460908    2000.1768 
   75600   -1793148.8    38017.593    36347.056   -70708.301    25.170539    -466.6516    225.54552    77.208503    89.153392    81.460908    2009.3774 
   75700   -1793363.3     36927.47     36511.24   -70416.025    61.142221   -126.58816    388.82763    77.208503    89.153392    81.460908     1997.058 
   75800   -1793215.8    37095.752    36360.079   -70066.997     88.31811    257.85783   -400.61095    77.208503    89.153392    81.460908    1995.6122 
   75900   -1793253.1    37430.137      36672.2   -69906.904   -127.03167     966.7893    576.05946    77.208503    89.153392    81.460908    1999.7476 
   76000   -1793252.7    36446.399    36008.422   -69179.774    454.74844    408.72143   -636.23695    77.208503    89.153392    81.460908    2008.2989 
   76100   -1793217.6    36532.794    37926.991   -70028.386    372.70724    93.858477   -602.22723    77.208503    89.153392    81.460908    1990.8612 
   76200   -1793276.1    37112.255    36482.372   -70393.394   -572.81617    -541.4937   -240.62594    77.208503    89.153392    81.460908    1997.7303 
   76300   -1793251.4    37436.021    36557.857   -71190.062    166.32592   -528.63766    98.541055    77.208503    89.153392    81.460908    1999.2931 
   76400   -1793295.6    37744.699     37404.42   -71167.949    593.97958   -373.86323     439.8062    77.208503    89.153392    81.460908    2006.5003 
   76500   -1793164.7    37705.349    37719.563   -71212.808   -672.94198    228.84753    145.29214    77.208503    89.153392    81.460908    1995.1108 
   76600   -1793238.9    36802.923    37561.702   -71312.318    28.027055    1407.7379   -445.76604    77.208503    89.153392    81.460908    1996.2202 
   76700   -1793124.8    37494.043    39064.985     -70116.4    293.56707    338.57464    384.65359    77.208503    89.153392    81.460908    1994.4884 
   76800   -1793223.1    37678.623    37066.479   -69333.707    600.65427    -95.18685     396.3028    77.208503    89.153392    81.460908    2001.0311 
   76900     -1793290     37552.23    37427.078   -69644.524    -679.5329    496.99989    91.695937    77.208503    89.153392    81.460908    2008.8348 
   77000   -1793214.3    38014.009    36247.569   -69561.314   -688.64004   -214.88047   -361.59938    77.208503    89.153392    81.460908    1994.1968 
   77100   -1793263.6    37642.415    36623.508   -70122.267    395.21524    107.94148   -356.22189    77.208503    89.153392    81.460908    2003.9344 
   77200   -1793292.3    37977.136    36788.734   -70588.885    1055.3932    243.48333   -245.77712    77.208503    89.153392    81.460908    2000.6571 
   77300   -1793279.7    36324.442     36662.21   -71089.531   -441.66327   -208.44882    259.22364    77.208503    89.153392    81.460908    1992.1588 
   77400   -1793246.1    37423.967     38198.02   -69935.318   -337.68179   -77.373919    764.13239    77.208503    89.153392    81.460908     2006.034 
   77500   -1793254.3    37533.133    37108.744   -70945.574   -250.30559    221.59733     419.7816    77.208503    89.153392    81.460908    2006.0998 
   77600   -1793169.2     37575.94    37757.726   -69118.334   -405.02738    415.65588    464.33414    77.208503    89.153392    81.460908     2002.292 
   77700     -1793217    36553.368    38008.652   -70795.356    198.98808     628.5127   -55.878917    77.208503    89.153392    81.460908    2000.1522 
   77800   -1793296.7    36007.101    37516.019   -70812.659     252.0652    517.09145     173.5676    77.208503    89.153392    81.460908    1980.2631 
   77900   -1793275.5    37744.863    37487.715   -71274.568   -781.68982    406.91157   -156.61222    77.208503    89.153392    81.460908    1998.7612 
   78000   -1793223.3     37948.45    38548.574   -70158.387   -300.01599     525.6383   -641.92239    77.208503    89.153392    81.460908    2003.0933 
   78100   -1793271.2    36959.451    37141.694   -70949.812    -483.5244    661.43367   -273.43714    77.208503    89.153392    81.460908     1996.743 
   78200   -1793206.5    37846.977    38604.965   -70110.846     654.4569   -96.511827    91.335446    77.208503    89.153392    81.460908    2002.0093 
   78300   -1793237.3    36697.458    37933.077   -70731.571    285.36568   -107.29395   -95.721822    77.208503    89.153392    81.460908    2004.7615 
   78400   -1793202.1     37545.09    37654.808   -71275.457    152.64611   -469.77206   -774.44581    77.208503    89.153392    81.460908    1993.5194 
   78500     -1793284     37683.03    37178.369   -70680.352    244.18579    379.11993    552.86528    77.208503    89.153392    81.460908     1988.352 
   78600   -1793308.5    37135.229    38208.947   -71513.664    353.78514    735.40725   -622.05708    77.208503    89.153392    81.460908    1990.5326 
   78700   -1793232.3    37961.616    38901.886   -71333.797    -796.8699    440.39314   -1000.0779    77.208503    89.153392    81.460908    2003.8269 
   78800   -1793217.2    37878.881    37498.312   -71875.038   -356.29485     42.30919   -181.27538    77.208503    89.153392    81.460908    2003.0588 
   78900   -1793146.6    38077.032    38552.618   -71082.254   -671.59266    751.23209   -49.093191    77.208503    89.153392    81.460908    2004.5221 
   79000   -1793284.8    37000.795    37286.399   -72331.215   0.90934825    219.28481    -576.9397    77.208503    89.153392    81.460908    1990.7863 
   79100   -1793277.5    38178.629    36803.712   -71575.282    115.18774   -693.89242   -422.95497    77.208503    89.153392    81.460908    1996.5845 
   79200   -1793204.8    40287.542    37159.527    -70372.57   -958.68414    -320.2604   -234.54931    77.208503    89.153392    81.460908     1996.097 
   79300   -1793269.1    37931.677    36869.129   -70764.438   -303.48999    86.152587   -87.874219    77.208503    89.153392    81.460908    1986.7895 
   79400   -1793236.5    36969.489    37599.657   -71115.274   -320.05019    212.69292    207.29747    77.208503    89.153392    81.460908    1993.6036 
   79500   -1793194.7    38245.974    37077.023   -70620.345   -17.234563   -136.35471   -414.53378    77.208503    89.153392    81.460908     2001.339 
   79600   -1793291.7    38589.062    36859.357   -71287.128   -214.82425    -587.8729   -275.55279    77.208503    89.153392    81.460908    1997.0613 
   79700   -1793195.1    38245.213    37227.071   -71356.047    72.758656   -32.276631     42.25728    77.208503    89.153392    81.460908    2000.4869 
   79800   -1793248.5    38302.639    38218.482   -71385.643    484.51921   -713.62617   -238.90803    77.208503    89.153392    81.460908    2000.7368 
   79900   -1793203.1    37031.724     37538.01   -71745.091    263.57811   -842.47773   -535.58081    77.208503    89.153392    81.460908    1980.8201 
   80000   -1793289.7    37459.769    36832.347   -70641.684   -59.934734   -950.96259    532.28346    77.208503    89.153392    81.460908    1986.7735 
   80100   -1793239.7    37557.295    37187.336   -71302.356   -608.18834    1.8468015   -426.65345    77.208503    89.153392    81.460908     1997.459 
   80200   -1793305.6    37373.652    35911.652   -71341.307   -118.93703    398.06817   -492.32784    77.208503    89.153392    81.460908    1993.7043 
   80300   -1793201.3    37003.827    37782.597   -70392.016    539.89291    1005.4258   -658.49746    77.208503    89.153392    81.460908     1997.459 
   80400   -1793231.6    37045.766    36904.931   -70795.332   -721.93689   -329.62843   -509.89001    77.208503    89.153392    81.460908    2007.0026 
   80500   -1793294.6    37999.029    37534.656   -71190.582    304.32991    133.01968    722.34397    77.208503    89.153392    81.460908    1994.8551 
   80600   -1793241.4     37972.07    36577.958   -70918.669   -959.97955   -644.41928    432.19214    77.208503    89.153392    81.460908    2006.5653 
   80700   -1793331.9    37239.969    36603.694   -71216.368    49.902036   -1264.3748   -57.871603    77.208503    89.153392    81.460908    2004.7135 
   80800   -1793131.8    38046.106    38633.932   -70011.477   -216.33969    296.41096   -199.29315    77.208503    89.153392    81.460908    2000.2298 
   80900   -1793227.5    37319.536    38719.337   -70128.583    203.88673    439.34996   -18.380759    77.208503    89.153392    81.460908    2001.5583 
   81000   -1793237.1    37988.585    36886.782    -70643.18   -214.16023   -343.00846    605.67059    77.208503    89.153392    81.460908    2001.5777 
   81100   -1793170.7    38506.163    37724.957   -70710.471   -332.39118    25.722751   -562.12437    77.208503    89.153392    81.460908    2010.8113 
   81200   -1793234.1    36744.788    37721.159   -71099.964      940.788    682.12646     412.5661    77.208503    89.153392    81.460908     1990.925 
   81300   -1793173.3    37714.598      37793.7    -70638.35    550.23585    463.04866    422.41024    77.208503    89.153392    81.460908    2004.5076 
   81400     -1793261    38202.793    37343.232   -70200.128    192.01112   -153.47312    337.40369    77.208503    89.153392    81.460908    2007.9027 
   81500   -1793248.1    38171.819    37364.394   -69977.452     1214.401    131.55112     1534.019    77.208503    89.153392    81.460908    2002.5366 
   81600   -1793230.4    38340.851    37398.929   -70457.645    421.62055    -202.0096    531.44832    77.208503    89.153392    81.460908     2009.165 
   81700   -1793152.4    38716.963    36815.519   -70383.133   -387.58561   -782.88479    -150.0882    77.208503    89.153392    81.460908    2001.9484 
   81800   -1793301.2    37724.176    35998.029   -70788.694    73.555998   -337.80815    531.03708    77.208503    89.153392    81.460908    2000.3121 
   81900   -1793247.7    38286.797    37212.139   -70867.646    396.11427   -591.29837    246.58814    77.208503    89.153392    81.460908     2010.252 
   82000   -1793290.7    36363.963    36795.354   -70289.563   -203.43014    340.48294   -133.38118    77.208503    89.153392    81.460908    1998.8163 
   82100   -1793207.6    37782.572    37585.867   -70955.509    24.799814    310.86112   -834.98251    77.208503    89.153392    81.460908    1997.4627 
   82200   -1793147.6    38274.407    37895.995   -70283.322   -709.52024   -521.80654    71.682057    77.208503    89.153392    81.460908    1998.9474 
   82300   -1793165.8      38154.3    37317.173   -70879.737    -224.8312    544.40241    42.768374    77.208503    89.153392    81.460908    2001.1795 
   82400   -1793326.5    37630.046    37035.762   -71192.046    356.90227    178.77033    280.98271    77.208503    89.153392    81.460908     2024.047 
   82500   -1793328.5    36832.897    36562.951   -70558.585    34.799231    590.67235    239.30315    77.208503    89.153392    81.460908    2004.5213 
   82600   -1793284.4    36933.217    37538.927    -71004.39    93.164517    191.54672   -527.58121    77.208503    89.153392    81.460908    2003.6705 
   82700   -1793169.2    37176.122    37657.814   -70502.996    41.458091     399.8942    92.028849    77.208503    89.153392    81.460908     1998.829 
   82800   -1793229.9    38512.283    36795.104   -70631.176   -297.04395     815.9025    92.940597    77.208503    89.153392    81.460908    1999.1198 
   82900   -1793209.7    37569.618    36798.662   -70019.198   -150.54516   -438.38653   -476.22607    77.208503    89.153392    81.460908    2004.9554 
   83000   -1793209.3     37776.68    38909.713   -69018.058     437.1632   -110.55267    557.80893    77.208503    89.153392    81.460908    2002.4178 
   83100   -1793169.3    37879.739    37596.282   -69891.982   -482.90489    140.77466   -541.29862    77.208503    89.153392    81.460908    2007.9815 
   83200   -1793150.7    38507.581    36743.135   -70651.128   -741.23609    228.41049   -127.74729    77.208503    89.153392    81.460908    1984.7666 
   83300   -1793285.2    37241.825    37732.925   -71192.026   -334.96252    186.34205   -105.05328    77.208503    89.153392    81.460908     1989.403 
   83400   -1793289.5    37301.427    37814.682   -71377.087   -273.70656    706.98903   -1271.2283    77.208503    89.153392    81.460908    2002.4499 
   83500   -1793333.1    36563.432    37018.642   -72378.434    556.01004   -423.80872    411.07005    77.208503    89.153392    81.460908    1991.4385 
   83600   -1793187.8    37661.383    37968.982   -71062.984   -365.77834   -219.89602    -553.1196    77.208503    89.153392    81.460908    2001.2634 
   83700   -1793127.1     37004.76    39201.869   -68741.853   -866.04104    533.80094   -322.10389    77.208503    89.153392    81.460908    1996.8755 
   83800   -1793191.8    37634.142    37651.706   -69941.647    404.40078    518.42751    479.26669    77.208503    89.153392    81.460908     1999.154 
   83900   -1793260.6    37218.157    36537.644   -70424.997   -301.04035   -298.88333    270.94032    77.208503    89.153392    81.460908    1993.5579 
   84000   -1793202.4    36960.182    36361.109    -70966.02    -422.7128    52.649629    89.320285    77.208503    89.153392    81.460908    2007.1072 
   84100   -1793358.9    35684.204    37011.499   -70865.134    500.46839   -254.69787    -460.6388    77.208503    89.153392    81.460908    1991.1168 
   84200     -1793312    36825.472    37703.645   -71062.636    446.41773   -372.22166   -417.49059    77.208503    89.153392    81.460908    2003.0559 
   84300   -1793296.8    37333.997    37327.505   -71726.648    -214.6802   -277.26771   -647.40341    77.208503    89.153392    81.460908    1988.1485 
   84400   -1793162.6    38143.628    37837.935   -70139.865    111.64356    137.56161   -340.19054    77.208503    89.153392    81.460908    2009.5051 
   84500   -1793204.4    37752.965    38278.344   -70698.127   0.27046234   -42.685017    395.67067    77.208503    89.153392    81.460908    2009.1073 
   84600   -1793237.4    38187.871    37387.685   -70933.146    41.511239   -175.30585   -369.11121    77.208503    89.153392    81.460908    1995.8462 
   84700   -1793068.7    38981.416    38457.021   -69744.555    240.17782   -394.06666    607.05607    77.208503    89.153392    81.460908     1994.656 
   84800   -1793220.7      37833.9    38043.198   -71095.713    883.66377    33.042182    13.413879    77.208503    89.153392    81.460908     2000.275 
   84900   -1793268.7    38180.883    37244.861   -70695.968    349.36164   -759.90919   -59.011297    77.208503    89.153392    81.460908    1995.3931 
   85000   -1793258.5    36893.249    36899.591   -69688.856    475.39484      25.1381   -80.817685    77.208503    89.153392    81.460908    2006.3116 
   85100   -1793203.1    38704.149    37949.248   -70217.677    841.71464   -377.71033    520.40516    77.208503    89.153392    81.460908    2003.8137 
   85200   -1793256.5    37794.682    37548.678   -70129.143    350.51398   -1004.2577    411.30664    77.208503    89.153392    81.460908    1996.9307 
   85300   -1793126.6    39031.083    37263.695   -70634.802    77.460591   -730.06824    599.43526    77.208503    89.153392    81.460908    2000.2366 
   85400   -1793223.5    36637.188    37957.111   -70341.015   -560.19799   -204.82173   -789.87479    77.208503    89.153392    81.460908    1997.4956 
   85500   -1793272.2     37623.52    38199.342   -69905.507    259.76927   -112.43741    43.194897    77.208503    89.153392    81.460908    2004.4355 
   85600   -1793238.8    38130.446    37639.637   -69876.312   -37.180929    255.34608   -494.78591    77.208503    89.153392    81.460908    2000.1672 
   85700   -1793134.7    37044.205    38106.109   -69758.537   -120.62303    834.50772   -755.34138    77.208503    89.153392    81.460908    2001.5424 
   85800   -1793223.2    37619.736    37161.603   -69991.852    -73.91607    263.64885   -431.41558    77.208503    89.153392    81.460908    1997.5083 
   85900   -1793238.8    37604.791     37740.77   -71073.651   -634.10706    102.22402   -302.80402    77.208503    89.153392    81.460908    2002.5924 
   86000   -1793299.7    35987.185     37894.97   -71182.994    83.676296    520.53426    -459.7759    77.208503    89.153392    81.460908     2000.761 
   86100   -1793258.4    37160.285    36882.868   -70249.366     650.3092   -286.28879    806.78575    77.208503    89.153392    81.460908    1999.5862 
   86200   -1793278.6    37480.991     36752.43   -70229.809    491.69229   -167.11131    235.62564    77.208503    89.153392    81.460908    1996.0105 
   86300   -1793270.9    37747.158    36941.983   -70094.631   -40.657822   -219.56816    339.60008    77.208503    89.153392    81.460908     1998.863 
   86400   -1793204.8     37652.21    38473.715   -70972.122   -240.25882   -208.65119    383.40877    77.208503    89.153392    81.460908    1994.6651 
   86500   -1793155.3    37496.851    38128.571    -70865.49   -320.88312    554.07466    792.60558    77.208503    89.153392    81.460908    2000.8249 
   86600   -1793213.7    36908.698    37855.686   -71135.477   -366.85437   -503.36725    140.62914    77.208503    89.153392    81.460908    1990.6989 
   86700   -1793312.1    37357.665    37918.011   -72425.377   -142.69268    780.65436    639.46416    77.208503    89.153392    81.460908    2004.4964 
   86800   -1793174.9    37907.582    38715.391   -70873.108   -304.66144    309.97735   -477.27849    77.208503    89.153392    81.460908    1998.2727 
   86900   -1793193.7    38468.134    37181.413   -71348.182    182.25122   -187.08553   -337.14486    77.208503    89.153392    81.460908    2001.8977 
   87000   -1793217.8    37988.207    38831.574   -70478.314    417.33088    681.37658    113.70359    77.208503    89.153392    81.460908     2000.992 
   87100   -1793161.7    38084.393    37271.188   -70282.365    -57.23973   -885.50705    -171.1785    77.208503    89.153392    81.460908    2006.9337 
   87200   -1793255.6    37294.945     37711.59    -70588.29    452.91747    275.46077     594.5435    77.208503    89.153392    81.460908    1997.1467 
   87300   -1793282.9    37195.839    36975.889   -71197.154    1351.7346   -205.03431    334.17343    77.208503    89.153392    81.460908    1992.4282 
   87400     -1793184    39100.773    36912.858   -70515.563    360.13763    1.7564444    603.86496    77.208503    89.153392    81.460908    2000.2198 
   87500     -1793211    36988.781    36076.947   -71461.048      391.882   -1049.4347    551.96113    77.208503    89.153392    81.460908    1987.8996 
   87600   -1793256.5     37331.88    37204.877   -70886.376    -63.97902   -974.19077    656.37101    77.208503    89.153392    81.460908    2003.5181 
   87700   -1793208.7    39110.931    37635.666   -69941.745   -140.30447   -513.84526     279.5191    77.208503    89.153392    81.460908    2013.7329 
   87800   -1793222.6    37999.611    37374.995   -70195.906    327.09315   -10.115912   -22.952359    77.208503    89.153392    81.460908    2003.6642 
   87900   -1793311.8    37046.307    37494.896   -71463.696    924.97608     50.56886   -389.55055    77.208503    89.153392    81.460908    2005.6493 
   88000   -1793224.2    37332.084    38377.859   -71248.692    445.52986    1008.8635    243.90326    77.208503    89.153392    81.460908    2003.6819 
   88100     -1793237    37416.762      38268.6   -69342.748    515.20986    270.66051    1261.7973    77.208503    89.153392    81.460908    1993.6254 
   88200   -1793214.4    37917.071    36637.146   -69836.097   -518.29661    227.44015   -40.926796    77.208503    89.153392    81.460908    1992.7473 
   88300   -1793291.9    36130.624    36599.066   -70511.704   -378.36358    384.30993    57.599996    77.208503    89.153392    81.460908    1992.0254 
   88400   -1793283.6    36464.122    36756.298   -69847.916    714.84886   -522.23538   -14.432946    77.208503    89.153392    81.460908    1997.6811 
   88500     -1793277    36920.021    36611.871   -70829.001    -82.18883   -170.68913    -785.0465    77.208503    89.153392    81.460908    2004.7235 
   88600   -1793214.4    38151.655    38614.633   -70533.387   -664.99705    14.022805    858.52529    77.208503    89.153392    81.460908    2010.4108 
   88700   -1793266.8    37065.549    38283.106   -69954.843   -57.633559    236.84139    -661.0749    77.208503    89.153392    81.460908    2000.1539 
   88800   -1793230.6    36747.874    37304.486   -71101.253   -374.67493   -293.83344    236.10119    77.208503    89.153392    81.460908    1991.3188 
   88900   -1793184.9    37864.588    37400.788   -69638.437    386.69379   -538.57857   -264.85568    77.208503    89.153392    81.460908     2005.675 
   89000   -1793261.6    36475.642    38855.906    -70468.06   -429.24166    14.778114   -623.86051    77.208503    89.153392    81.460908    1991.7694 
   89100     -1793227    37417.228    37694.776   -71150.203    165.02471    447.05611   -259.28327    77.208503    89.153392    81.460908    1998.8659 
   89200   -1793207.7     37931.45    38100.167   -69564.242   -182.43841    -41.15168    316.63696    77.208503    89.153392    81.460908    2009.2757 
   89300   -1793217.9    37843.056    37917.304   -69586.134   -122.41469    565.72585    265.64647    77.208503    89.153392    81.460908    2016.2573 
   89400   -1793312.6    36585.295    37334.701    -71513.03   -221.30736     1343.757   -412.92489    77.208503    89.153392    81.460908    1996.7935 
   89500   -1793260.5    37671.939    36706.484   -70362.349   -559.70744    -174.3811   -517.94969    77.208503    89.153392    81.460908    1998.5692 
   89600     -1793250    37748.645    37478.225   -71018.029     429.6957   -150.15917    453.73428    77.208503    89.153392    81.460908    1995.3333 
   89700   -1793208.7     37386.52     38226.18   -70344.614   -374.13826    481.86093   -48.469234    77.208503    89.153392    81.460908    1995.3218 
   89800   -1793208.3     38806.71    38079.313   -69464.453    807.72335    458.28685    407.02235    77.208503    89.153392    81.460908    2010.8648 
   89900     -1793355    37391.984    35907.631     -71645.1    1039.2898   -73.817854    612.86183    77.208503    89.153392    81.460908    2008.4664 
   90000   -1793179.5    37487.337    37090.505   -70784.908    269.07688    303.42542    521.77148    77.208503    89.153392    81.460908    1996.5896 
   90100   -1793237.1    39012.004     37725.63    -70234.13   -76.674858    27.081179    946.29006    77.208503    89.153392    81.460908    2009.1303 
   90200   -1793280.6     35892.58    37063.615   -70732.152     842.9618    296.76407    36.191754    77.208503    89.153392    81.460908    1989.0951 
   90300   -1793271.3    36576.498    37272.401   -71162.331    249.78312    301.26346   -177.18025    77.208503    89.153392    81.460908    2003.3667 
   90400   -1793188.2    37189.457    38165.703   -70938.312   -143.75072   -225.35708   -654.24824    77.208503    89.153392    81.460908    1994.1062 
   90500   -1793239.6    37628.371    36991.667   -70502.072    296.44999    474.27231    38.927825    77.208503    89.153392    81.460908    2005.6861 
   90600   -1793260.2    37658.218    38068.308   -71061.156    431.57945    624.11933   -419.19596    77.208503    89.153392    81.460908    2008.9375 
   90700   -1793292.2    37913.252     36853.62   -70704.701   -649.33702   -374.06031    197.45993    77.208503    89.153392    81.460908    2003.7514 
   90800   -1793208.4    38001.755    37619.897   -70386.435   -22.711724    -342.5985     35.96902    77.208503    89.153392    81.460908     1998.482 
   90900   -1793271.9    37937.565    36960.643    -70542.37   0.65166098   -445.29392   -57.566564    77.208503    89.153392    81.460908    2007.6301 
   91000   -1793196.6    37227.341    37949.273   -70288.412    26.261468   -39.912282   -45.180749    77.208503    89.153392    81.460908    1999.9596 
   91100     -1793228    37597.469    37527.126   -70303.659    295.83986      -71.981   -32.805995    77.208503    89.153392    81.460908    1997.1461 
   91200   -1793140.7    38081.295    36718.765   -70118.322     242.8899    -379.8313    1109.3104    77.208503    89.153392    81.460908    1990.5105 
   91300     -1793224     38043.07    35985.159   -70341.665    514.58503   -290.01856   -184.66887    77.208503    89.153392    81.460908    2004.9796 
   91400   -1793300.2    36705.911    37305.487   -71194.662    108.49155     232.6371    193.15711    77.208503    89.153392    81.460908    1998.0224 
   91500   -1793258.2    38189.945    36081.276   -71193.574    1385.6339   -779.17269    716.72166    77.208503    89.153392    81.460908     1993.501 
   91600   -1793201.8    38924.342    36413.979   -69845.189    369.82824   -438.64816    415.46216    77.208503    89.153392    81.460908    1998.0223 
   91700   -1793267.6    37587.223    38130.603   -71327.461    283.05242     394.9521    72.845273    77.208503    89.153392    81.460908    1996.0767 
   91800   -1793223.5    37616.826    38344.879   -70639.899    544.11834    -767.1426    708.27227    77.208503    89.153392    81.460908    2004.1188 
   91900   -1793302.8    37013.085    37907.087   -70533.524    226.29698   -321.75006    467.61512    77.208503    89.153392    81.460908     2007.248 
   92000   -1793284.4     36417.28    36628.647   -71209.569    899.90989    351.53408    568.93883    77.208503    89.153392    81.460908    1986.8663 
   92100   -1793259.4    38052.576    37079.302   -70868.444    202.16093    297.08043    769.53693    77.208503    89.153392    81.460908    2000.4903 
   92200   -1793221.9    37389.048    37418.161   -70968.879    202.05986    400.90359   -544.01271    77.208503    89.153392    81.460908    1994.8795 
   92300   -1793209.3    36751.844    37399.557   -70232.306   -1377.8911   -230.64469   -769.39342    77.208503    89.153392    81.460908    2005.1749 
   92400   -1793222.5    37890.934    38042.858   -70643.272    73.743925   -248.65609    366.00576    77.208503    89.153392    81.460908    2004.5526 
   92500   -1793191.6    38560.601     38151.59   -71047.713   -6.6052624    113.30347    117.83022    77.208503    89.153392    81.460908    2008.8885 
   92600   -1793186.6    38335.567    38137.732   -69896.206   -41.706985   -530.46118    410.24927    77.208503    89.153392    81.460908    2001.9789 
   92700   -1793280.4    38468.748     36268.38   -71734.913   -404.66792   -809.17661     70.39873    77.208503    89.153392    81.460908    2003.4997 
   92800     -1793197    37643.088    37231.073   -70561.299    431.43718   -209.38366    691.73957    77.208503    89.153392    81.460908     2002.601 
   92900   -1793159.2    37859.576    37235.127   -70436.398    319.76841   -60.495296    1011.7415    77.208503    89.153392    81.460908    1996.4232 
   93000     -1793285    38065.359    36768.956   -71312.686    565.62212   -359.47773     322.7624    77.208503    89.153392    81.460908    2000.8483 
   93100   -1793304.5    36750.723    36516.734   -71079.947    9.4521903   -393.59178   -186.72291    77.208503    89.153392    81.460908    1992.7098 
   93200   -1793215.7    38184.736    37616.009   -70011.838    622.44648    186.95425    768.31463    77.208503    89.153392    81.460908    2003.9094 
   93300     -1793226    37884.405     37844.73   -70745.122   -483.88605   -84.399902    421.57015    77.208503    89.153392    81.460908    2013.8555 
   93400   -1793119.8    38941.243    37667.128    -69776.55   -273.46656   -358.98349    25.332652    77.208503    89.153392    81.460908    1997.5326 
   93500   -1793172.4    38493.422    38254.718   -70875.533   -186.11206   -66.774919    390.62918    77.208503    89.153392    81.460908    1994.7098 
   93600   -1793351.9    37604.941    36316.895   -71318.597     1023.265   -985.02628    581.28304    77.208503    89.153392    81.460908    2001.1477 
   93700   -1793224.3    38649.663    36966.605   -70420.031    43.630171   -781.27188    427.16238    77.208503    89.153392    81.460908    1993.4564 
   93800   -1793272.1    37097.054    37095.652   -71533.614    242.92474   -692.17491    518.35795    77.208503    89.153392    81.460908    1993.5445 
   93900   -1793153.8    37942.597    37271.638   -70000.024    619.32112   -21.979128    415.79571    77.208503    89.153392    81.460908    1995.0197 
   94000     -1793124    38633.243    37513.336    -69422.67    181.91909   -584.98108    535.84735    77.208503    89.153392    81.460908     1999.846 
   94100   -1793229.7      37181.7    37657.105    -70379.33    920.52415     619.5651    1140.8645    77.208503    89.153392    81.460908    1992.8506 
   94200   -1793206.1    37394.072    36492.952   -70138.194    775.56962    192.99921    480.42535    77.208503    89.153392    81.460908     1998.309 
   94300   -1793256.9    37570.739    35787.336   -70174.266   -438.20471   -597.49493   -354.44239    77.208503    89.153392    81.460908    1990.4581 
   94400   -1793170.6    38067.814    37945.023   -70240.746    704.76882   -1067.7252   -103.35641    77.208503    89.153392    81.460908    2006.5962 
   94500   -1793207.1    37467.501    38151.436   -70804.678    101.23194     534.5353   -429.75582    77.208503    89.153392    81.460908    2003.1532 
   94600   -1793234.9    37496.714    37575.733   -69803.564    816.60521   -224.80094    869.93823    77.208503    89.153392    81.460908    1999.0841 
   94700   -1793231.3     37466.38    37223.076   -70634.969   -283.79728    445.70728    300.21677    77.208503    89.153392    81.460908    2001.1984 
   94800   -1793243.5    36348.152    37362.102   -70503.472    299.55576    61.031446   -111.39494    77.208503    89.153392    81.460908    1991.3939 
   94900   -1793289.1    36609.847    36558.798   -70741.081     55.33657    324.96527    419.24284    77.208503    89.153392    81.460908    1994.6169 
   95000   -1793338.1    36576.597    37082.588   -70557.559   -340.22051    313.76909    89.335954    77.208503    89.153392    81.460908    2000.2107 
   95100     -1793142    37882.654    38517.281   -70294.303    265.84925     358.5944    593.86681    77.208503    89.153392    81.460908    1993.9152 
   95200   -1793271.6    36858.108    37208.153    -71772.66   -24.254614     118.1194    40.338431    77.208503    89.153392    81.460908    2001.2957 
   95300   -1793217.6    38121.689    37020.676   -70808.579    90.457078     452.6043   -147.96122    77.208503    89.153392    81.460908    2000.0753 
   95400     -1793250    37552.548    38228.372   -70726.066    125.85888    148.83516    20.739429    77.208503    89.153392    81.460908     2011.458 
   95500   -1793204.8    37564.134    38173.673   -70352.877   -1.9236331   -355.14604    556.81771    77.208503    89.153392    81.460908    2000.8527 
   95600   -1793266.3    36653.993    37823.704   -70336.037    1115.7546    432.25672    459.03632    77.208503    89.153392    81.460908    2007.1379 
   95700     -1793293    36211.018    37763.221   -70582.204    436.10826   -552.47991   -240.39737    77.208503    89.153392    81.460908     2006.023 
   95800   -1793188.6    37487.742     38296.84   -70233.732    43.666905   -159.47997    606.89671    77.208503    89.153392    81.460908    1992.1224 
   95900   -1793255.1    37647.308    38119.975   -70607.532    278.42603   -120.21812    393.48298    77.208503    89.153392    81.460908    1989.8414 
   96000   -1793284.3    37026.739     37215.01   -70686.036    807.07721   -810.30784   -212.60896    77.208503    89.153392    81.460908    1995.3059 
   96100   -1793235.7    37329.241    37248.222   -71461.051   -503.01319    -643.0143   -218.49099    77.208503    89.153392    81.460908    1997.5507 
   96200   -1793215.4    37456.125    37072.341   -70321.366   -552.86137   -255.32223   -774.13294    77.208503    89.153392    81.460908    1999.0934 
   96300   -1793211.7    37711.726    37488.446   -69602.753      191.135   -790.08836     33.28325    77.208503    89.153392    81.460908     1991.577 
   96400   -1793273.9      37298.9    37780.304   -70047.322    130.24001    459.79005   -150.12755    77.208503    89.153392    81.460908    2010.3636 
   96500   -1793211.8    38634.725    36417.292   -69871.066   -111.88445   -500.71055   -1102.8455    77.208503    89.153392    81.460908    1999.9294 
   96600     -1793217    37564.821    38040.706   -70518.522   -1087.3186    611.79298   -415.72819    77.208503    89.153392    81.460908     1984.385 
   96700   -1793230.9    36193.708        37695   -70738.333   -266.61871    50.937453    181.88959    77.208503    89.153392    81.460908    1999.2432 
   96800     -1793285    36078.724    37672.224   -70049.746   -731.20746   -385.92773   -726.33224    77.208503    89.153392    81.460908    1994.8171 
   96900   -1793281.4    37695.555    36961.034   -69985.152   -194.93784   -61.307286   -205.99934    77.208503    89.153392    81.460908    1995.2135 
   97000   -1793295.1     37963.43    37032.515   -71559.241   -3.6400331   -181.33131    284.48148    77.208503    89.153392    81.460908    1997.0292 
   97100   -1793200.2     38693.23    38937.327   -71016.909    366.32325    487.82831    602.79329    77.208503    89.153392    81.460908    1994.7679 
   97200   -1793302.2     37171.08    36340.635   -71477.998    245.28504    331.79847    -97.26932    77.208503    89.153392    81.460908    1993.8251 
   97300   -1793316.1    37883.743    36578.701    -71021.52   -341.31235    186.94178    889.73192    77.208503    89.153392    81.460908    2008.1356 
   97400   -1793281.5    37079.494    37333.816   -69956.698    626.27719    210.42125    826.03332    77.208503    89.153392    81.460908    2001.6716 
   97500   -1793221.7    37803.202    37637.179    -69469.91    254.45274    786.10795    103.29266    77.208503    89.153392    81.460908    2000.1915 
   97600     -1793228    38452.718    37560.579   -69280.117    274.28067   -151.77783    130.30853    77.208503    89.153392    81.460908     2001.199 
   97700   -1793250.4    37197.667    37048.051   -70235.132   -38.550934   -179.91515    279.71831    77.208503    89.153392    81.460908    2015.3225 
   97800     -1793276    37336.885    37553.445   -69264.347   -51.652082    273.74169    419.05448    77.208503    89.153392    81.460908    1984.5342 
   97900   -1793229.7     37297.92    37369.068   -68869.635   -152.05434    396.27031    336.76322    77.208503    89.153392    81.460908     2004.632 
   98000   -1793165.8    38305.983    37103.984   -68642.603   -93.516038   -18.634016    589.99421    77.208503    89.153392    81.460908    2014.8301 
   98100   -1793100.7    37767.283     37187.79   -69982.348    468.87928   -642.31143    283.41122    77.208503    89.153392    81.460908    2000.8302 
   98200   -1793190.7    37866.855    36628.271   -71107.809   -521.95024   -770.90999   -166.48579    77.208503    89.153392    81.460908    1995.4903 
   98300   -1793247.6    37387.334    37303.582   -71098.643    310.50514    59.428371   -65.793142    77.208503    89.153392    81.460908    2005.0832 
   98400   -1793203.3    37649.494    36451.496   -70870.736   -426.05951    -813.1415   -579.54462    77.208503    89.153392    81.460908     1999.202 
   98500   -1793281.2    36847.716    37026.129   -70465.149   -128.93443   -354.10761    146.01313    77.208503    89.153392    81.460908    1999.8725 
   98600   -1793257.1    36904.476     37878.78   -70956.072    291.63596    251.18589   -621.70694    77.208503    89.153392    81.460908    1984.9058 
   98700   -1793350.3    37881.167    37410.676     -71372.2   -756.25628    258.48152   -701.54983    77.208503    89.153392    81.460908    1993.1363 
   98800   -1793235.6    36900.763    38504.635   -71507.811   -1302.0499   -43.853875   -750.13295    77.208503    89.153392    81.460908    1996.1251 
   98900   -1793300.3    37017.922    37740.596   -71620.567    41.161617   -60.888752    -841.8694    77.208503    89.153392    81.460908    1996.1517 
   99000   -1793268.8    36585.442    37417.899   -71362.763   -127.97798    452.74679    -610.1111    77.208503    89.153392    81.460908    1995.6278 
   99100   -1793109.8    38455.378    38315.178   -70305.694    184.83035    474.97423    613.23113    77.208503    89.153392    81.460908    1999.5562 
   99200   -1793198.3    39418.658    38132.463   -70873.427   -309.36177   -458.96714    93.558294    77.208503    89.153392    81.460908    2000.4946 
   99300     -1793309     37090.83    37432.343   -71390.781   -359.76848     285.3708    192.39753    77.208503    89.153392    81.460908    1997.5941 
   99400   -1793269.8    37424.265    37482.275   -69693.434   -656.04208    458.18009   -304.61957    77.208503    89.153392    81.460908      2002.67 
   99500   -1793315.4    36095.183    37552.904   -70101.079   -495.33678    594.54804   -255.06245    77.208503    89.153392    81.460908    2006.4658 
   99600   -1793202.4    37739.748     37241.86    -68692.53    118.34785    620.35686    782.82361    77.208503    89.153392    81.460908    1991.1445 
   99700   -1793208.2    37353.831    36220.639   -69861.883   -618.95817    546.15363   -432.08052    77.208503    89.153392    81.460908    1990.5347 
   99800   -1793279.3    36605.446    36556.416   -70218.158   -751.79736   -596.28542   -704.62578    77.208503    89.153392    81.460908    1993.5759 
   99900   -1793095.2    38729.136    36977.025   -70493.345    238.46314   -1585.5375   -898.71105    77.208503    89.153392    81.460908    1998.4937 
  100000   -1793157.7    37944.974    36246.099   -69066.341    509.70784   -674.49695   -366.54149    77.208503    89.153392    81.460908    2005.9465 
  100083   -1793333.7    37255.197    36258.433   -70486.971    465.38088   -108.36704    525.40086    77.208503    89.153392    81.460908    1997.1947 
Loop time of 6872.49 on 15 procs for 50000 steps with 58365 atoms

Pair  time (%) = 4370.34 (63.5918)
Kspce time (%) = 2152.34 (31.3182)
Neigh time (%) = 111.028 (1.61554)
Comm  time (%) = 159.51 (2.32099)
Outpt time (%) = 1.94485 (0.0282991)
Other time (%) = 77.3326 (1.12525)

Nlocal:    3891 ave 3918 max 3834 min
Histogram: 2 1 0 0 0 0 3 4 0 5
Nghost:    18515.5 ave 18650 max 18394 min
Histogram: 2 4 0 0 0 2 4 0 1 2
Neighs:    1.48237e+06 ave 1.52449e+06 max 1.44137e+06 min
Histogram: 2 1 2 2 0 2 2 1 1 2

Total # of neighbors = 22235596
Ave neighs/atom = 380.975
Neighbor list builds = 1782
Dangerous builds = 0
unfix   2


write_data NPT_relaxed_2000.data
PPPM initialization ...
  G vector (1/distance) = 0.308788
  grid = 72 80 75
  stencil order = 5
  estimated absolute RMS force accuracy = 0.00179588
  estimated relative force accuracy = 0.000124717
  using double precision FFTs
  3d grid and FFT values/proc = 58144 28800

