

variable      mytemp equal  1400

# -------------------- FORCE FIELDS ----------------------
pair_style buck/coul/long 10.0 10.0

read_data	NPT_relaxed_1400.data
  orthogonal box = (0.20181 0.233032 0.212925) to (77.0992 89.0272 81.3456)
  1 by 7 by 1 MPI processor grid
  reading atoms ...
  58275 atoms
  reading velocities ...
  58275 velocities

pair_coeff    * * 1e-30 1e-30 0.0
pair_coeff    1 2 1204.18 0.3165   0.0
pair_coeff    1 1 9547.96 0.21916  32.0

kspace_style    pppm 0.0001

## Define group
group oxygen type 1
34965 atoms in group oxygen
group chromium type 2
23310 atoms in group chromium


## --------------------- NVT  --------------------
compute allmsd all displace/atom

#dump          2 all custom 25000  dump/dump id type xu yu zu c_allmsd[1] c_allmsd[2] c_allmsd[3] c_allmsd[4]
#dump          1 all xyz 25000 xyz/all.xyz
#dump_modify   1 element O Cr



compute   Omsd oxygen msd com yes
compute   Crmsd chromium msd com yes
variable  OMSDX equal "c_Omsd[1]"
variable  OMSDY equal "c_Omsd[2]"
variable  OMSDZ equal "c_Omsd[3]"
variable  OMSDAll equal "c_Omsd[4]"

variable  CrMSDX equal "c_Crmsd[1]"
variable  CrMSDY equal "c_Crmsd[2]"
variable  CrMSDZ equal "c_Crmsd[3]"
variable  CrMSDAll equal "c_Crmsd[4]"

thermo          1000
thermo_style    custom step pe ke press lx ly lz temp c_Omsd[1]  c_Omsd[2]  c_Omsd[3]  c_Omsd[4]  c_Crmsd[1]  c_Crmsd[2]  c_Crmsd[3]  c_Crmsd[4]


fix          1 all print 100 "${OMSDX}   ${OMSDY}   ${OMSDZ}  ${OMSDAll}  ${CrMSDX}   ${CrMSDY}   ${CrMSDZ}  ${CrMSDAll}" file MSD1400.data screen no
fix          3 all nvt temp ${mytemp} ${mytemp} 0.01
fix          3 all nvt temp 1400 ${mytemp} 0.01
fix          3 all nvt temp 1400 1400 0.01

run      1000000
PPPM initialization ...
  G vector (1/distance) = 0.309164
  grid = 72 80 75
  stencil order = 5
  estimated absolute RMS force accuracy = 0.00176997
  estimated relative force accuracy = 0.000122918
  using double precision FFTs
  3d grid and FFT values/proc = 123082 64800
Memory usage per processor = 22.54 Mbytes
Step PotEng KinEng Press Lx Ly Lz Temp Omsd[1] Omsd[2] Omsd[3] Omsd[4] Crmsd[1] Crmsd[2] Crmsd[3] Crmsd[4] 
       0   -1795543.2    10606.418    720.06126     76.89738    88.794136     81.13265    1408.0863 5.0757113e-29            0            0 5.0757113e-29 2.0194839e-28 2.1191153e-29            0 2.2313954e-28 
    1000   -1795490.3    10556.493    668.28099     76.89738    88.794136     81.13265    1401.4583  0.025786954  0.025323987  0.034261585  0.085372527  0.020931205  0.020291029  0.026848396   0.06807063 
    2000   -1795478.2    10496.816    677.91919     76.89738    88.794136     81.13265    1393.5358  0.025741002  0.026559265  0.032829855  0.085130122  0.021131125  0.021958556  0.025745503  0.068835184 
    3000   -1795535.8    10590.653    706.62846     76.89738    88.794136     81.13265    1405.9933  0.025590261  0.025247802  0.031772842  0.082610905  0.020683994  0.020234455  0.024773506  0.065691955 
    4000   -1795549.1    10601.927    636.73087     76.89738    88.794136     81.13265      1407.49  0.025406665   0.02521723  0.033479682  0.084103577  0.020410146  0.020360634  0.026619597  0.067390377 
    5000   -1795523.2    10575.486    471.40498     76.89738    88.794136     81.13265    1403.9798  0.025266305  0.025526349  0.032167095  0.082959749  0.020478448  0.020813767  0.025286025   0.06657824 
    6000   -1795486.8     10559.02    879.41614     76.89738    88.794136     81.13265    1401.7938  0.026119753  0.026185559  0.033213641  0.085518953  0.021257144   0.02108801   0.02605429  0.068399444 
    7000   -1795560.1    10558.629    676.68814     76.89738    88.794136     81.13265     1401.742  0.025379329  0.025667525  0.033014367  0.084061221  0.020665267  0.020759375  0.026048353  0.067472996 
    8000   -1795560.7    10470.812    119.74253     76.89738    88.794136     81.13265    1390.0835  0.025313356  0.025702515  0.034004649   0.08502052  0.020385093  0.020695878  0.026617252  0.067698222 
    9000   -1795528.3    10569.368    288.67633     76.89738    88.794136     81.13265    1403.1677  0.025631965  0.026598822  0.032391782  0.084622568  0.020721493  0.021120331  0.025057946  0.066899769 
   10000     -1795504    10478.874    528.36629     76.89738    88.794136     81.13265    1391.1539  0.025463713  0.026224166   0.03333647  0.085024348  0.020559732  0.020757997  0.026244317  0.067562046 
   11000   -1795441.9    10571.444     1336.946     76.89738    88.794136     81.13265    1403.4432  0.026012921  0.026061054  0.034632186  0.086706162  0.021131079  0.020811859  0.027211467  0.069154404 
   12000   -1795463.4    10509.778    441.60912     76.89738    88.794136     81.13265    1395.2566   0.02617154  0.026524741  0.032994573  0.085690854  0.020864826  0.021174854  0.026063945  0.068103626 
   13000   -1795534.2    10598.899    655.22776     76.89738    88.794136     81.13265    1407.0881  0.026697249  0.026655726  0.034741792  0.088094768  0.020986967  0.020936401  0.027200608  0.069123977 
   14000   -1795472.5     10556.21      328.697     76.89738    88.794136     81.13265    1401.4208  0.026136037  0.026369552  0.033258651   0.08576424   0.02052591  0.020376266  0.025994233  0.066896409 
   15000   -1795517.5    10534.074    482.52568     76.89738    88.794136     81.13265    1398.4821  0.027129589  0.026029118  0.033405004  0.086563711  0.021342969  0.020438687  0.026213376  0.067995032 
   16000   -1795437.3    10487.188    874.37568     76.89738    88.794136     81.13265    1392.2576  0.026610981  0.027263721  0.033753685  0.087628387  0.020964916  0.021781627  0.026926883  0.069673427 
   17000   -1795504.8     10562.22    406.07727     76.89738    88.794136     81.13265    1402.2187  0.026825014  0.026200549  0.033782536  0.086808099  0.021489742  0.020705196   0.02617877  0.068373707 
   18000   -1795520.8    10537.295    578.13821     76.89738    88.794136     81.13265    1398.9097  0.026755019  0.025514152  0.034123452  0.086392623  0.021500761   0.01997828  0.026685673  0.068164714 
   19000   -1795489.5    10588.172    565.58091     76.89738    88.794136     81.13265     1405.664  0.026602002  0.026814575  0.033035691  0.086452268  0.020674688  0.020718398  0.025360945  0.066754031 
   20000   -1795443.8    10509.839    1019.3108     76.89738    88.794136     81.13265    1395.2647  0.026738763  0.026562335  0.034704072  0.088005171  0.021354322  0.020835016  0.027374543   0.06956388 
   21000     -1795593    10621.727    297.83749     76.89738    88.794136     81.13265    1410.1187  0.026494568  0.026794038  0.032805251  0.086093857   0.02073105  0.020554315  0.025615289  0.066900653 
   22000     -1795447    10572.109    1378.3045     76.89738    88.794136     81.13265    1403.5316  0.026296787  0.026613371  0.033421098  0.086331256  0.021039394   0.02064943  0.026240889  0.067929713 
   23000   -1795499.7    10575.998    840.76792     76.89738    88.794136     81.13265    1404.0478  0.026452878  0.027315448  0.034222317  0.087990643  0.020619322  0.021239458  0.026375781  0.068234561 
   24000   -1795450.2     10534.69    1383.9839     76.89738    88.794136     81.13265    1398.5638  0.026569052  0.027045503  0.033298673  0.086913228  0.020986886  0.020583079  0.026487931  0.068057897 
   25000   -1795523.4    10498.069    144.41373     76.89738    88.794136     81.13265    1393.7021  0.027157604  0.026538407   0.03318231  0.086878321  0.021124745  0.020445998  0.026265196   0.06783594 
   26000   -1795515.8    10543.525    692.69256     76.89738    88.794136     81.13265    1399.7367  0.026504281  0.027274991  0.033427139  0.087206411  0.020759059  0.021062609  0.026609996  0.068431664 
   27000   -1795483.5    10499.486    420.81568     76.89738    88.794136     81.13265    1393.8903  0.026722754  0.027065354  0.032984386  0.086772494  0.020885393  0.020744895  0.025847372   0.06747766 
   28000   -1795482.3    10577.318    921.73992     76.89738    88.794136     81.13265    1404.2231  0.026821947  0.027937033  0.032736571  0.087495551  0.020675717  0.021385127  0.025805015  0.067865859 
   29000   -1795465.9    10547.003    539.52216     76.89738    88.794136     81.13265    1400.1985  0.026877763  0.027235372  0.034602794  0.088715929  0.020862472  0.020499153   0.02713724  0.068498865 
   30000   -1795559.1    10526.902    764.45137     76.89738    88.794136     81.13265      1397.53  0.026641749  0.028295898  0.032913254  0.087850901  0.020416881  0.020855272  0.025884681  0.067156835 
   31000   -1795451.9    10590.977    873.50018     76.89738    88.794136     81.13265    1406.0364  0.027156097  0.027921773  0.033243301  0.088321171  0.021022898  0.020891814  0.025687164  0.067601876 
   32000   -1795482.1    10552.201     547.5558     76.89738    88.794136     81.13265    1400.8886  0.026852597  0.027399108  0.033623945   0.08787565  0.020883073  0.020872843  0.026582011  0.068337926 
   33000   -1795525.8    10487.311    522.63224     76.89738    88.794136     81.13265    1392.2739  0.026690963  0.027752734  0.032650198  0.087093894  0.020592477  0.020600339  0.025673595  0.066866411 
   34000     -1795427    10553.288    919.32971     76.89738    88.794136     81.13265    1401.0328   0.02698331   0.02771118  0.033676261  0.088370751  0.020890867  0.020710948  0.026214869  0.067816684 
   35000   -1795432.2    10590.027     731.8755     76.89738    88.794136     81.13265    1405.9103  0.026989239  0.027822802  0.033098031  0.087910072  0.020831335  0.020722924  0.025819843  0.067374102 
   36000   -1795523.1    10548.196    487.14795     76.89738    88.794136     81.13265    1400.3569  0.026303074   0.02808336   0.03346371  0.087850145  0.020246786  0.021004177   0.02636871  0.067619674 
   37000   -1795552.9    10565.786    611.44115     76.89738    88.794136     81.13265    1402.6921  0.027183021  0.027880965   0.03322419  0.088288176   0.02072527  0.021164863  0.026567052  0.068457185 
   38000   -1795493.6    10470.922    788.86733     76.89738    88.794136     81.13265    1390.0981  0.027021251   0.02799521  0.032921955  0.087938416  0.020343608  0.021471923  0.026222736  0.068038267 
   39000   -1795526.3    10524.757    630.30819     76.89738    88.794136     81.13265    1397.2452  0.026894256  0.026738614  0.033841774  0.087474645  0.020882562  0.020641592  0.027086295  0.068610449 
   40000   -1795466.4    10544.245    678.35919     76.89738    88.794136     81.13265    1399.8323  0.027446596  0.027073976  0.032447301  0.086967874  0.021212851  0.020435835   0.02547321  0.067121895 
   41000     -1795495    10536.772    940.58237     76.89738    88.794136     81.13265    1398.8402  0.026782403  0.028227631  0.033187329  0.088197363  0.020426228  0.021234806  0.025973232  0.067634266 
   42000   -1795544.6    10589.231    447.54619     76.89738    88.794136     81.13265    1405.8046   0.02750625  0.027698583   0.03356272  0.088767552  0.020699896  0.021000002  0.026096479  0.067796377 
   43000   -1795496.9    10603.421    817.93174     76.89738    88.794136     81.13265    1407.6884  0.027349963  0.027094141  0.033121625  0.087565729  0.021236485  0.020342278  0.026259926   0.06783869 
   44000   -1795544.9     10522.36    577.87832     76.89738    88.794136     81.13265    1396.9269  0.027709004  0.027053687  0.032621433  0.087384123  0.021303431  0.020617563  0.025514978  0.067435972 
   45000   -1795446.2    10512.516    1198.8617     76.89738    88.794136     81.13265      1395.62  0.027364031   0.02725413  0.032848781  0.087466942  0.021083434  0.020837911  0.026542807  0.068464152 
   46000   -1795478.7    10591.465    785.45929     76.89738    88.794136     81.13265    1406.1012  0.026536668   0.02696174  0.033474511  0.086972918  0.020535793  0.020949738  0.026735381  0.068220911 
   47000   -1795503.8    10537.431    512.99783     76.89738    88.794136     81.13265    1398.9277   0.02677692   0.02688104  0.031876535  0.085534494  0.020675227  0.020372077  0.024678302  0.065725605 
   48000   -1795526.9    10537.868    700.06021     76.89738    88.794136     81.13265    1398.9857  0.027174882  0.027575821  0.033577712  0.088328415  0.021265092  0.021629355   0.02662888  0.069523327 
   49000   -1795566.9    10596.195    381.07697     76.89738    88.794136     81.13265    1406.7291   0.02636294  0.026734296  0.032451454   0.08554869  0.020717795   0.02076574  0.026059988  0.067543522 
   50000   -1795499.1    10489.321    691.99128     76.89738    88.794136     81.13265    1392.5407  0.027044343  0.027341267  0.033208719  0.087594329  0.021063918  0.021253828  0.026184406  0.068502152 
   51000     -1795510    10578.739    628.34973     76.89738    88.794136     81.13265    1404.4117  0.026869871  0.027512496  0.032913962  0.087296329  0.020898579  0.021360473  0.025864937   0.06812399 
   52000   -1795466.3    10511.706    740.06613     76.89738    88.794136     81.13265    1395.5125  0.026381621  0.027417625  0.033295331  0.087094577  0.020373788  0.021812702  0.026438156  0.068624647 
   53000   -1795488.7    10590.806    630.57992     76.89738    88.794136     81.13265    1406.0137  0.026517886  0.026405094  0.033029072  0.085952052  0.020864163  0.020998736  0.025832358  0.067695258 
   54000   -1795517.7    10566.642    593.35013     76.89738    88.794136     81.13265    1402.8057   0.02700992  0.027244359  0.032594989  0.086849268  0.020780933  0.021342142  0.025893231  0.068016307 
   55000   -1795476.8    10501.191    867.85776     76.89738    88.794136     81.13265    1394.1166  0.026729634  0.027513108  0.033934446  0.088177188  0.020832464  0.021653935  0.026736911  0.069223311 
   56000   -1795459.6    10539.416    821.91516     76.89738    88.794136     81.13265    1399.1913  0.027239614  0.027224781  0.032571479  0.087035873  0.020882369  0.020848588  0.025693562  0.067424519 
   57000   -1795497.7    10599.573    922.25704     76.89738    88.794136     81.13265    1407.1776  0.026979222  0.026724151   0.03294318  0.086646553  0.020818848  0.020639426  0.026457741  0.067916016 
   58000   -1795479.7    10563.657    843.42611     76.89738    88.794136     81.13265    1402.4095  0.026954005  0.027399068   0.03335076  0.087703833   0.02057902   0.02133425  0.026670804  0.068584073 
   59000   -1795526.2    10512.324    578.60864     76.89738    88.794136     81.13265    1395.5946  0.027492168  0.027184367  0.033365225  0.088041759  0.021206205  0.021335537  0.026033108  0.068574849 
   60000   -1795549.1    10538.491    625.35487     76.89738    88.794136     81.13265    1399.0685  0.027281567  0.027466164  0.033342717  0.088090447  0.021153232  0.021342547  0.026718978  0.069214757 
   61000   -1795545.7    10543.672    875.84612     76.89738    88.794136     81.13265    1399.7563  0.027383944  0.027396353  0.033498501  0.088278798  0.021033779  0.021312547   0.02662189  0.068968217 
   62000   -1795524.3    10594.104    668.51716     76.89738    88.794136     81.13265    1406.4516  0.027220068  0.027414589  0.033490413  0.088125071  0.021478156  0.021322264  0.026401942  0.069202362 
   63000   -1795565.7    10509.415    260.89398     76.89738    88.794136     81.13265    1395.2083  0.027012551  0.027452487  0.033403004  0.087868042  0.020703266   0.02115778  0.026385474   0.06824652 
   64000   -1795535.6    10473.907    987.46631     76.89738    88.794136     81.13265    1390.4943  0.027282884  0.027007224  0.033725598  0.088015706  0.020926938  0.021002255  0.027156723  0.069085915 
   65000   -1795534.5     10598.91    937.05172     76.89738    88.794136     81.13265    1407.0895   0.02690452  0.027657891   0.03360835  0.088170761  0.020521882  0.021612747  0.026761342   0.06889597 
   66000   -1795408.2    10490.347    747.71346     76.89738    88.794136     81.13265    1392.6769  0.027087025  0.026434162  0.032755674   0.08627686  0.020591126   0.02042852  0.026305316  0.067324961 
   67000   -1795520.2    10562.945    181.23477     76.89738    88.794136     81.13265    1402.3149  0.027183262  0.027059327  0.034238194  0.088480783  0.020952793  0.021292331  0.027643061  0.069888185 
   68000   -1795500.7    10502.901    615.81245     76.89738    88.794136     81.13265    1394.3436   0.02684499  0.027150645  0.033718552  0.087714186   0.02052459  0.020785992  0.026566427  0.067877009 
   69000   -1795537.5    10600.188    377.02522     76.89738    88.794136     81.13265    1407.2592   0.02798038  0.027276613  0.033601235  0.088858228  0.021151504  0.021166206  0.026558685  0.068876396 
   70000   -1795575.2    10621.969    674.24385     76.89738    88.794136     81.13265    1410.1508  0.027148886  0.027274255  0.033551084  0.087974225   0.02055506  0.020970966  0.026827239  0.068353265 
   71000   -1795525.6    10533.188    219.12669     76.89738    88.794136     81.13265    1398.3644  0.027939467  0.026977603  0.033479324  0.088396394  0.021007794  0.020869573  0.026372022  0.068249389 
   72000   -1795525.9    10526.059    132.65707     76.89738    88.794136     81.13265     1397.418  0.027991458  0.028284028  0.032581148  0.088856633   0.02121115  0.021456161  0.025663442  0.068330754 
   73000   -1795474.3    10497.397     955.9117     76.89738    88.794136     81.13265    1393.6129  0.027967473  0.027603088  0.033537682  0.089108244    0.0209863  0.021019723  0.026583835  0.068589858 
   74000   -1795531.1    10540.374    501.78223     76.89738    88.794136     81.13265    1399.3185   0.02757996  0.027977467  0.033823947  0.089381374  0.020569892  0.021499324  0.026939823  0.069009038 
   75000   -1795507.9    10533.081    857.14905     76.89738    88.794136     81.13265    1398.3503  0.027784883  0.027956718   0.03342903  0.089170631   0.02122124  0.021344004  0.026365198  0.068930441 
   76000   -1795546.8    10538.363    411.70449     76.89738    88.794136     81.13265    1399.0514  0.028126155  0.028136344  0.033364975  0.089627474  0.020957225   0.02160056  0.026707749  0.069265534 
   77000   -1795512.1    10544.777    39.319464     76.89738    88.794136     81.13265     1399.903  0.028204003  0.028186591  0.033427623  0.089818217  0.021275065  0.021480953  0.026875812   0.06963183 
   78000   -1795503.2     10461.14    179.33569     76.89738    88.794136     81.13265    1388.7995  0.028042796  0.028329993  0.032926027  0.089298817  0.020695224  0.021196489  0.025894533  0.067786246 
   79000   -1795510.2    10549.691    463.53097     76.89738    88.794136     81.13265    1400.5553   0.02780342  0.028192191  0.033363266  0.089358877  0.020404208  0.021066272  0.026652792  0.068123271 
   80000   -1795446.6    10520.918    908.18225     76.89738    88.794136     81.13265    1396.7355  0.028623335  0.028285699   0.03395151  0.090860544  0.021095499  0.021184648  0.027300779  0.069580925 
   81000   -1795509.6    10520.432    806.13771     76.89738    88.794136     81.13265    1396.6709  0.028742572  0.028543241   0.03431382  0.091599633  0.020998441  0.021710892  0.027745029  0.070454362 
   82000   -1795478.4    10533.445    777.20504     76.89738    88.794136     81.13265    1398.3985   0.02867249  0.028633551  0.034368126  0.091674168  0.021309984  0.021542394  0.027222251  0.070074628 
   83000   -1795486.6    10607.006    301.99479     76.89738    88.794136     81.13265    1408.1643  0.028086345  0.028889766  0.033479456  0.090455567   0.02077658  0.021872005  0.027054703  0.069703288 
   84000   -1795553.6    10520.262    363.89635     76.89738    88.794136     81.13265    1396.6484  0.027585029  0.028641307  0.033595189  0.089821525  0.020500806  0.021234043  0.026795694  0.068530542 
   85000   -1795488.1    10547.755    516.16627     76.89738    88.794136     81.13265    1400.2983  0.028557655  0.028915322  0.033711921  0.091184898  0.021351659  0.021643829  0.026644159  0.069639647 
   86000   -1795541.7    10535.097    445.83281     76.89738    88.794136     81.13265    1398.6178  0.027737478  0.028240011  0.033339359  0.089316847  0.020342878  0.021492048  0.026063408  0.067898333 
   87000   -1795528.4    10501.742    134.66367     76.89738    88.794136     81.13265    1394.1897  0.028188695  0.028193801  0.033933716  0.090316211  0.021118493  0.021008211   0.02757231  0.069699013 
   88000   -1795580.5    10558.351    396.88086     76.89738    88.794136     81.13265     1401.705  0.028009184  0.027729455  0.033350146  0.089088785  0.020491011  0.020553243  0.026895464  0.067939718 
   89000   -1795541.8    10596.537    687.73812     76.89738    88.794136     81.13265    1406.7745  0.028515276  0.028255133   0.03358014  0.090350549  0.021242532  0.021222277  0.026826801   0.06929161 
   90000   -1795521.7    10591.467    600.04284     76.89738    88.794136     81.13265    1406.1014  0.027658388  0.027454255  0.033559752  0.088672395   0.02049513  0.020558062  0.026825881  0.067879073 
   91000   -1795484.3    10510.608    592.64046     76.89738    88.794136     81.13265    1395.3668  0.027405966  0.028500657  0.033386462  0.089293084  0.020619971  0.021374686  0.026390187  0.068384844 
   92000   -1795428.3    10487.395    1263.7052     76.89738    88.794136     81.13265    1392.2851   0.02758169  0.028445789  0.033280464  0.089307943  0.020834686  0.021137968  0.027093043  0.069065696 
   93000   -1795468.4    10533.298    838.18786     76.89738    88.794136     81.13265    1398.3791  0.028127553  0.027839014  0.033017973   0.08898454  0.020755523  0.021113615  0.025925216  0.067794354 
   94000   -1795530.3    10508.807    457.34894     76.89738    88.794136     81.13265    1395.1276  0.029345159  0.028192274  0.033206565  0.090743997  0.021609523  0.021504935  0.026536271  0.069650729 
   95000   -1795464.3    10563.205    1037.9681     76.89738    88.794136     81.13265    1402.3494  0.028395838  0.028240749  0.033875261  0.090511848  0.021555165  0.021077663  0.027047717  0.069680545 
   96000   -1795542.2    10547.136    487.68991     76.89738    88.794136     81.13265    1400.2162   0.02765511  0.027543078  0.032848192   0.08804638   0.02011825  0.021212972  0.026275266  0.067606487 
   97000     -1795503    10504.197    1001.3012     76.89738    88.794136     81.13265    1394.5156   0.02849335  0.027401712  0.033126307  0.089021369  0.021044232  0.021377031  0.026569794  0.068991056 
   98000   -1795484.1    10555.724    730.91328     76.89738    88.794136     81.13265    1401.3562  0.028725612  0.027168567  0.033502536  0.089396715  0.021080843  0.021026184  0.026461613   0.06856864 
   99000   -1795538.3    10517.292    426.60488     76.89738    88.794136     81.13265    1396.2542  0.028909936  0.027148261  0.033676208  0.089734406  0.021524748  0.020656626  0.026369289  0.068550664 
  100000   -1795554.7    10518.411    487.90094     76.89738    88.794136     81.13265    1396.4026  0.028084695  0.027407767  0.033579521  0.089071983  0.020681206  0.020973844  0.026907122  0.068562172 
  101000   -1795536.4    10555.015    347.62814     76.89738    88.794136     81.13265    1401.2621  0.028193704  0.027496872  0.033233098  0.088923674  0.020789303  0.020815374  0.026652646  0.068257322 
  102000     -1795502    10538.383    795.09377     76.89738    88.794136     81.13265    1399.0541  0.027687102    0.0272073  0.032995825  0.087890227  0.020382647  0.020452888  0.027040571  0.067876107 
  103000   -1795531.2     10587.38    560.60167     76.89738    88.794136     81.13265    1405.5589  0.028011564  0.027726243  0.032872378  0.088610185  0.020724379   0.02139221  0.026442935  0.068559525 
  104000   -1795495.7    10490.916    273.19317     76.89738    88.794136     81.13265    1392.7525  0.028418003  0.027698844  0.033607396  0.089724243  0.021049147  0.021360155   0.02666165  0.069070952 
  105000   -1795532.9     10537.32    786.30803     76.89738    88.794136     81.13265     1398.913  0.028209331  0.027252204  0.033060724  0.088522259   0.02102453  0.020166193  0.026202779  0.067393502 
  106000   -1795545.1    10594.564     230.6617     76.89738    88.794136     81.13265    1406.5126  0.028014431  0.028374059  0.033608588  0.089997077   0.02098488  0.021707891  0.026565172  0.069257943 
  107000   -1795528.9      10568.5     318.9135     76.89738    88.794136     81.13265    1403.0524  0.027665759   0.02757535  0.033552402  0.088793512  0.020831984  0.021329579  0.026243758  0.068405322 
  108000   -1795491.4    10552.623     537.1498     76.89738    88.794136     81.13265    1400.9446  0.027704112   0.02749203  0.033255891  0.088452033  0.021419525  0.020846399  0.026401246   0.06866717 
  109000   -1795459.8    10595.077    779.08663     76.89738    88.794136     81.13265    1406.5807   0.02801112  0.027765661  0.033630743  0.089407523  0.021081505  0.021309448  0.026884167   0.06927512 
  110000     -1795527    10504.161    608.42759     76.89738    88.794136     81.13265    1394.5109  0.027520225  0.027949639  0.032524086  0.087993951  0.021148528  0.021451207   0.02602033  0.068620065 
  111000   -1795530.4    10503.542     603.9523     76.89738    88.794136     81.13265    1394.4286  0.027824818  0.027552341  0.033514007  0.088891166  0.020927777  0.021099918  0.027157802  0.069185497 
  112000   -1795450.1    10532.736    1033.5529     76.89738    88.794136     81.13265    1398.3044  0.027854879  0.028006379  0.032780273  0.088641531  0.020763523  0.021434267  0.026001152  0.068198942 
  113000   -1795445.4    10546.493    1068.9674     76.89738    88.794136     81.13265    1400.1308  0.028051513  0.028370817  0.033326073  0.089748404  0.021254177  0.021756139  0.026811031  0.069821347 
  114000   -1795491.9    10519.925    1314.8614     76.89738    88.794136     81.13265    1396.6037  0.027749075  0.028293266  0.033171363  0.089213703  0.021363039  0.021459368  0.026687881  0.069510287 
  115000   -1795474.2    10574.962     673.4587     76.89738    88.794136     81.13265    1403.9103  0.027543083  0.027239512  0.032484866  0.087267462  0.020687888  0.020907513  0.026110089   0.06770549 
  116000   -1795436.7    10642.321    1272.2336     76.89738    88.794136     81.13265    1412.8527  0.028023592  0.027288671  0.034583245  0.089895508  0.021567133  0.021104573   0.02827107  0.070942775 
  117000   -1795542.7    10648.023    558.20481     76.89738    88.794136     81.13265    1413.6097  0.028068187  0.027558291  0.033333138  0.088959617  0.021397226  0.021233083  0.026415452  0.069045761 
  118000   -1795568.9    10501.295    239.64229     76.89738    88.794136     81.13265    1394.1304  0.028518513  0.028148852  0.033422689  0.090090054  0.021550758  0.021663368  0.026266891  0.069481018 
  119000   -1795490.8    10546.308      823.535     76.89738    88.794136     81.13265    1400.1062  0.027498163  0.027776014  0.033600879  0.088875056  0.020930413  0.020879847  0.026769457  0.068579718 
  120000   -1795460.6    10566.346    468.55754     76.89738    88.794136     81.13265    1402.7665  0.027235795  0.027515377  0.032834898   0.08758607  0.020641407  0.020960848  0.026401415  0.068003669 
  121000   -1795512.7    10577.508    639.74702     76.89738    88.794136     81.13265    1404.2483  0.027861882  0.027478939   0.03448676   0.08982758  0.021186465  0.020744146  0.027352728  0.069283339 
  122000   -1795483.7    10558.107    730.51203     76.89738    88.794136     81.13265    1401.6727  0.028023714  0.027992699  0.033168954  0.089185367  0.021388966  0.021165391  0.026671171  0.069225529 
  123000   -1795519.6    10585.548    257.13644     76.89738    88.794136     81.13265    1405.3156   0.02779657   0.02818163  0.033570314  0.089548514  0.020932953  0.021443201  0.026694926   0.06907108 
  124000   -1795499.3    10503.772    803.43515     76.89738    88.794136     81.13265    1394.4593  0.027691653  0.027869048  0.033218124  0.088778825  0.021031529  0.021544209  0.027025441  0.069601179 
  125000   -1795475.1    10565.171    713.84244     76.89738    88.794136     81.13265    1402.6105  0.027596932  0.027783616  0.033322395  0.088702944  0.020795462   0.02109159  0.027001688  0.068888739 
  126000   -1795497.9    10525.586    652.76363     76.89738    88.794136     81.13265    1397.3552  0.027885744  0.027589796  0.033162488  0.088638028  0.021367534  0.020763772  0.026966372  0.069097678 
  127000   -1795553.4    10499.308    184.66732     76.89738    88.794136     81.13265    1393.8666  0.027381699  0.028227364  0.033699897  0.089308959  0.020661266  0.021629052  0.027123534  0.069413851 
  128000   -1795545.4    10523.137    721.02194     76.89738    88.794136     81.13265    1397.0301  0.027264621  0.027688492   0.03432392  0.089277033  0.021012777  0.020458394  0.026878484  0.068349656 
  129000   -1795538.9    10542.794    322.88179     76.89738    88.794136     81.13265    1399.6397  0.027051798  0.028022625  0.033314483  0.088388906  0.020450408  0.020559696  0.026755967   0.06776607 
  130000   -1795522.1    10535.901    845.45993     76.89738    88.794136     81.13265    1398.7247  0.028404383  0.028710176  0.033835086  0.090949645  0.021543996  0.021864852  0.026981228  0.070390076 
  131000   -1795523.2    10542.361    689.04808     76.89738    88.794136     81.13265    1399.5822  0.027892532  0.028430432   0.03397396  0.090296923  0.021093586  0.021003942  0.026453542   0.06855107 
  132000   -1795462.6    10597.721    1197.1299     76.89738    88.794136     81.13265    1406.9317  0.027978717  0.027916669  0.032662221  0.088557607  0.021460594  0.020533635  0.025854252  0.067848481 
  133000   -1795572.1    10541.996    266.43867     76.89738    88.794136     81.13265    1399.5338  0.027866073  0.028186267   0.03358202   0.08963436  0.020962299  0.021610521  0.027418983  0.069991803 
  134000   -1795498.2    10554.566    424.40018     76.89738    88.794136     81.13265    1401.2025  0.027975815  0.029280095  0.032478859  0.089734768  0.020997012  0.021892577  0.025416898  0.068306487 
  135000   -1795547.6    10491.241   -37.198632     76.89738    88.794136     81.13265    1392.7956  0.027883838  0.027999657  0.033819072  0.089702567  0.021284621  0.021113993  0.026562133  0.068960746 
  136000   -1795494.1    10579.325    1001.3891     76.89738    88.794136     81.13265    1404.4895  0.027333008  0.027966324   0.03335282  0.088652152  0.021016161  0.021070231  0.026427235  0.068513627 
  137000     -1795507    10570.558    400.34826     76.89738    88.794136     81.13265    1403.3256  0.028107375  0.028414651  0.033665454   0.09018748  0.021561326  0.021557775  0.026519745  0.069638845 
  138000   -1795525.6     10601.09     292.2209     76.89738    88.794136     81.13265     1407.379  0.027375783  0.028075267  0.033449187  0.088900238  0.021025318  0.021018114  0.026413541  0.068456972 
  139000   -1795518.8     10639.18    474.75975     76.89738    88.794136     81.13265    1412.4356  0.027719591  0.028261108  0.032584072   0.08856477  0.020906472   0.02124506  0.025979319  0.068130851 
  140000   -1795477.7    10532.186    673.39262     76.89738    88.794136     81.13265    1398.2314  0.027605775  0.028230446  0.033431985  0.089268206  0.021064137  0.021387042  0.026914436  0.069365615 
  141000   -1795524.5    10548.567    457.00533     76.89738    88.794136     81.13265    1400.4061   0.02818502  0.028846606  0.032851982  0.089883608  0.021596697  0.021756438  0.026338808  0.069691943 
  142000   -1795494.3    10513.583    862.97771     76.89738    88.794136     81.13265    1395.7618  0.027831269  0.028500203  0.032940163  0.089271636  0.021143973  0.021401043  0.026362208  0.068907224 
  143000   -1795548.3     10616.43    689.18721     76.89738    88.794136     81.13265    1409.4155  0.028027195  0.028769044  0.034151756  0.090947994  0.021286501   0.02129107  0.027514871  0.070092441 
  144000   -1795519.4    10505.758    392.56968     76.89738    88.794136     81.13265    1394.7228  0.028002404  0.028497112  0.032811512  0.089311027  0.021124298  0.021435822  0.025998268  0.068558389 
  145000   -1795570.3    10538.155    444.16658     76.89738    88.794136     81.13265    1399.0239  0.027879367  0.028199451  0.033948194  0.090027011  0.021305994  0.020889865  0.026680701  0.068876559 
  146000   -1795532.5    10535.904    591.82447     76.89738    88.794136     81.13265     1398.725  0.027781335  0.028788968  0.033605651  0.090175954  0.020981388  0.021424925  0.026648048  0.069054361 
  147000   -1795537.2    10588.669    403.84208     76.89738    88.794136     81.13265      1405.73  0.027645072  0.028146803  0.033553658  0.089345533  0.021406928  0.021162552  0.026510852  0.069080333 
  148000     -1795493    10500.744    240.65485     76.89738    88.794136     81.13265    1394.0573  0.027314013  0.028270397  0.033642193  0.089226603  0.020775498  0.020991756   0.02677901  0.068546264 
  149000   -1795474.6    10534.379     329.9672     76.89738    88.794136     81.13265    1398.5225  0.027185723   0.02859816  0.033573424  0.089357308   0.02121017  0.021522176  0.026465328  0.069197674 
  150000   -1795496.5    10527.278    516.64129     76.89738    88.794136     81.13265    1397.5798  0.027497186  0.029160833   0.03372234  0.090380359   0.02138644  0.021826472    0.0266858  0.069898712 
  151000     -1795459    10594.862    859.35168     76.89738    88.794136     81.13265    1406.5522  0.027224987  0.028653741   0.03359099  0.089469718  0.020788392  0.021779361  0.026345528  0.068913281 
  152000   -1795574.4    10598.348    61.369316     76.89738    88.794136     81.13265     1407.015  0.027788654  0.027718817  0.033388009   0.08889548    0.0218083  0.020920891  0.027277349   0.07000654 
  153000   -1795529.9    10522.152    200.31485     76.89738    88.794136     81.13265    1396.8993   0.02796502  0.028855485  0.033342361  0.090162866   0.02176429  0.022135222  0.026254222  0.070153734 
  154000   -1795435.6    10523.534    939.78699     76.89738    88.794136     81.13265    1397.0828  0.027988442  0.028390862   0.03374135  0.090120654  0.021765463  0.021391255  0.026506478  0.069663196 
  155000   -1795539.2     10447.24    59.820868     76.89738    88.794136     81.13265    1386.9541  0.027427321  0.028569884  0.034072209  0.090069413  0.021304894  0.021456273  0.027016983   0.06977815 
  156000     -1795553    10554.266    535.96371     76.89738    88.794136     81.13265    1401.1627  0.027670863  0.028531809  0.033157634  0.089360306  0.021185959  0.022067347  0.026872401  0.070125708 
  157000   -1795598.1    10509.349    159.21844     76.89738    88.794136     81.13265    1395.1996  0.028091475  0.028405005  0.033612729  0.090109208  0.021138749  0.021540225   0.02699227  0.069671244 
  158000   -1795550.8    10596.721    624.69504     76.89738    88.794136     81.13265     1406.799  0.027255742  0.028819832  0.033693833  0.089769406  0.021024456  0.021855589  0.027157174  0.070037219 
  159000   -1795536.5     10569.39    491.00813     76.89738    88.794136     81.13265    1403.1705  0.028498205  0.028259267  0.033577054  0.090334526  0.021619083  0.021637896  0.026826014  0.070082994 
  160000   -1795454.8    10586.136    931.71938     76.89738    88.794136     81.13265    1405.3936  0.028221468  0.028537713  0.033096586  0.089855767  0.021755447  0.021967526  0.026488635  0.070211608 
  161000   -1795482.5    10544.879    1051.9711     76.89738    88.794136     81.13265    1399.9165  0.027920961  0.028428201  0.033297842  0.089647004    0.0213508  0.022051582   0.02652463  0.069927012 
  162000   -1795514.9    10560.775    225.17365     76.89738    88.794136     81.13265    1402.0268  0.028113881  0.028549272  0.033243102  0.089906256  0.020819642  0.022081592  0.025964865  0.068866099 
  163000   -1795518.5    10620.223    597.95947     76.89738    88.794136     81.13265    1409.9191  0.027971831  0.028033929  0.033404025  0.089409786  0.020955679  0.021698185  0.026261375  0.068915238 
  164000   -1795527.8    10516.077    481.41254     76.89738    88.794136     81.13265    1396.0928  0.028458689  0.028194425  0.033953177  0.090606291  0.021842384  0.022076544  0.026809551  0.070728479 
  165000   -1795555.5    10584.207    1151.0488     76.89738    88.794136     81.13265    1405.1376  0.027721474   0.02841132  0.033046621  0.089179414  0.021501949  0.021785414  0.025808754  0.069096117 
  166000   -1795597.9    10496.776   -78.112905     76.89738    88.794136     81.13265    1393.5305  0.027367491  0.028063612  0.033363231  0.088794335   0.02099435  0.022037153  0.027140075  0.070171578 
  167000   -1795500.1    10485.117    443.78594     76.89738    88.794136     81.13265    1391.9826  0.027678469  0.028671138  0.034135784   0.09048539  0.021233379  0.021974016  0.027558197  0.070765592 
  168000   -1795456.9    10556.477    1130.5529     76.89738    88.794136     81.13265    1401.4562  0.027857588  0.029132952  0.033179765  0.090170304  0.020737194   0.02258555  0.026380899  0.069703642 
  169000   -1795505.2    10608.403    596.28713     76.89738    88.794136     81.13265    1408.3498  0.029253709  0.027879845  0.033623251  0.090756806  0.022285267  0.021694122  0.026862483  0.070841872 
  170000   -1795522.2    10546.427    464.76189     76.89738    88.794136     81.13265    1400.1221  0.027765307  0.028453387  0.033340712  0.089559406  0.021156309  0.022240339  0.026434546  0.069831194 
  171000   -1795554.7    10516.765    397.85297     76.89738    88.794136     81.13265    1396.1842  0.028187772  0.028401586  0.033235878  0.089825235  0.021719875  0.021996703  0.026655096  0.070371674 
  172000   -1795517.2     10512.86    530.91912     76.89738    88.794136     81.13265    1395.6657  0.028942482  0.028172039   0.03316332  0.090277841  0.022620537  0.021881931  0.026321446  0.070823914 
  173000   -1795487.5    10568.017    319.17588     76.89738    88.794136     81.13265    1402.9882  0.027856381  0.028222401  0.033812376  0.089891158  0.021874752  0.021756919  0.027278096  0.070909767 
  174000   -1795500.9    10581.422    706.51517     76.89738    88.794136     81.13265    1404.7679  0.027313521  0.028157764   0.03341829  0.088889575  0.020982003  0.022137722  0.026564376  0.069684102 
  175000   -1795520.6    10552.499    578.70021     76.89738    88.794136     81.13265    1400.9281  0.027688933  0.028150675  0.032861466  0.088701074  0.021559217  0.022111607  0.026227054  0.069897879 
  176000   -1795512.8    10534.382    438.03063     76.89738    88.794136     81.13265    1398.5229    0.0286363  0.028871512   0.03315986  0.090667672  0.021847447  0.022097449  0.026167302  0.070112198 
  177000   -1795525.8    10530.687    492.35166     76.89738    88.794136     81.13265    1398.0324  0.028251122  0.028282672  0.033332005  0.089865799  0.021222009  0.022298388  0.026780537  0.070300934 
  178000   -1795504.4    10587.429    711.60547     76.89738    88.794136     81.13265    1405.5653  0.027757256  0.028486708  0.033574462  0.089818426  0.020899418  0.022094728  0.027597884  0.070592031 
  179000     -1795537    10517.057    327.28582     76.89738    88.794136     81.13265    1396.2229  0.028082892  0.028239098   0.03267173   0.08899372  0.021659189  0.021935054  0.025794815  0.069389058 
  180000   -1795573.7     10551.06    393.48148     76.89738    88.794136     81.13265    1400.7371  0.027881717  0.028227015  0.033523383  0.089632115  0.021265697  0.022141152  0.026712331   0.07011918 
  181000   -1795497.8    10532.917     692.4973     76.89738    88.794136     81.13265    1398.3285  0.027925244  0.028412626  0.034160976  0.090498846  0.021683372   0.02201765  0.027095941  0.070796962 
  182000   -1795436.3     10505.37    843.50793     76.89738    88.794136     81.13265    1394.6714  0.028398588  0.029002679  0.033036382  0.090437649  0.021573258  0.022637172  0.026129319   0.07033975 
  183000   -1795426.1    10563.831    1190.8014     76.89738    88.794136     81.13265    1402.4325  0.028292523  0.028754116  0.033399862  0.090446501  0.021841278  0.022322779  0.026421332  0.070585389 
  184000   -1795570.7    10611.323    231.56763     76.89738    88.794136     81.13265    1408.7374  0.027788044   0.02840153  0.032858978  0.089048553  0.021676118  0.022165502  0.026159887  0.070001506 
  185000   -1795481.7    10535.632    884.63438     76.89738    88.794136     81.13265    1398.6888  0.028020269  0.028930928  0.033049639  0.090000836  0.021013646  0.022556725  0.026635928    0.0702063 
  186000   -1795499.6    10575.737    661.54548     76.89738    88.794136     81.13265    1404.0131  0.028998584  0.028221127  0.032827101  0.090046811  0.022318236  0.021932386  0.025735431  0.069986053 
  187000   -1795444.1    10545.147    998.40513     76.89738    88.794136     81.13265     1399.952  0.028330845  0.028943507  0.034000251  0.091274603  0.021845522   0.02242908  0.027298092  0.071572694 
  188000   -1795486.7    10522.039     901.2518     76.89738    88.794136     81.13265    1396.8843  0.028470568  0.028690798  0.033903098  0.091064465  0.021487073  0.021977353  0.026848264   0.07031269 
  189000   -1795507.5    10508.324    682.36818     76.89738    88.794136     81.13265    1395.0636  0.028545565  0.028546748  0.033013441  0.090105754  0.021623587  0.022516589  0.026580398  0.070720574 
  190000   -1795511.9    10573.644    651.60065     76.89738    88.794136     81.13265    1403.7353  0.028099455  0.029275062  0.033636679  0.091011196  0.021158877  0.022496194  0.026625823  0.070280894 
  191000   -1795382.2    10566.352    1000.2313     76.89738    88.794136     81.13265    1402.7673  0.029164407  0.028764383  0.033048884  0.090977674  0.022080528   0.02222454  0.026364518  0.070669585 
  192000   -1795530.4     10622.38     717.1903     76.89738    88.794136     81.13265    1410.2054  0.028857038  0.028859666  0.033516897    0.0912336  0.021540061  0.022102686  0.027044994  0.070687741 
  193000     -1795562      10569.7    184.46909     76.89738    88.794136     81.13265    1403.2117  0.029038618  0.028160031  0.033059747  0.090258396  0.021860167  0.022084968  0.026540708  0.070485843 
  194000   -1795497.1    10535.527    529.61706     76.89738    88.794136     81.13265    1398.6749  0.028767503   0.02810511  0.034011759  0.090884373  0.021664881  0.022393382  0.026922114  0.070980377 
  195000   -1795531.6    10589.656    408.45567     76.89738    88.794136     81.13265     1405.861  0.028313844   0.02803342  0.033473558  0.089820821  0.021377279  0.021997867  0.026618587  0.069993734 
  196000   -1795535.7    10522.134    553.69392     76.89738    88.794136     81.13265    1396.8969  0.028278171  0.028619764  0.032950618  0.089848554  0.020815215  0.022654962  0.026555665  0.070025842 
  197000   -1795442.7    10590.872    638.43157     76.89738    88.794136     81.13265    1406.0225  0.027922842  0.028513434  0.034028867  0.090465143  0.020749091  0.022577399  0.027322633  0.070649123 
  198000   -1795505.5    10554.558    868.59089     76.89738    88.794136     81.13265    1401.2014   0.02858005  0.028110933  0.033275965  0.089966948  0.021667615  0.022255188  0.026289737   0.07021254 
  199000   -1795568.3    10504.486    289.48356     76.89738    88.794136     81.13265     1394.554  0.028884363  0.027470849  0.034229912  0.090585124  0.022000955  0.021712119  0.027460593  0.071173667 
  200000   -1795503.8    10532.046    488.10677     76.89738    88.794136     81.13265    1398.2129  0.028577432  0.027980758  0.033483033  0.090041223  0.021469531  0.022372292  0.027164595  0.071006418 
  201000     -1795486    10587.432    989.93225     76.89738    88.794136     81.13265    1405.5657  0.028535766  0.027807795  0.033525425  0.089868986  0.021027232  0.022322872  0.026840387  0.070190492 
  202000   -1795533.3    10561.514    850.92017     76.89738    88.794136     81.13265    1402.1249  0.028746757  0.028305907  0.034011182  0.091063846  0.021788297  0.022478484  0.027256263  0.071523043 
  203000   -1795486.6    10519.296    889.04879     76.89738    88.794136     81.13265    1396.5202  0.029283597  0.027773818   0.03328115  0.090338565  0.021875317  0.022119368  0.026025221  0.070019906 
  204000   -1795497.2    10585.254    641.59908     76.89738    88.794136     81.13265    1405.2767  0.028600254  0.028202403  0.033766977  0.090569634  0.021525805  0.022295198  0.027103488  0.070924492 
  205000   -1795510.7    10542.727    733.57384     76.89738    88.794136     81.13265    1399.6308  0.027760221  0.027622711  0.033873098   0.08925603  0.021104123  0.022319474   0.02681067  0.070234266 
  206000   -1795504.9    10517.021    314.19361     76.89738    88.794136     81.13265    1396.2182  0.028388306  0.027993493  0.033196329  0.089578128   0.02112725   0.02230558  0.026177827  0.069610656 
  207000   -1795526.1    10510.189    603.07592     76.89738    88.794136     81.13265    1395.3111  0.029505974  0.027826523  0.034631198  0.091963695  0.022114192    0.0219821  0.027803954  0.071900246 
  208000   -1795495.8    10542.942    826.07478     76.89738    88.794136     81.13265    1399.6593  0.028767911  0.027894945   0.03273003  0.089392887  0.021712225  0.021954171  0.025885637  0.069552033 
  209000   -1795528.4    10601.661    847.62391     76.89738    88.794136     81.13265    1407.4548  0.028425462  0.028069633  0.033850296  0.090345391  0.021778877  0.022120577  0.027259634  0.071159088 
  210000   -1795538.3    10540.156    399.27335     76.89738    88.794136     81.13265    1399.2894  0.028671814  0.028059403  0.033299278  0.090030495  0.021712065  0.022129241  0.026200169  0.070041475 
  211000     -1795522    10568.402    288.33411     76.89738    88.794136     81.13265    1403.0393   0.02899716   0.02837838   0.03334455  0.090720089  0.021330071  0.021709383  0.026634161  0.069673615 
  212000   -1795537.8    10479.008    322.01578     76.89738    88.794136     81.13265    1391.1716  0.028532291  0.028356283  0.033690357  0.090578931  0.021579923  0.022653964  0.026889485  0.071123373 
  213000     -1795580    10482.548    304.60899     76.89738    88.794136     81.13265    1391.6415  0.028601511  0.028017316  0.033038193   0.08965702  0.021535522  0.022297986  0.026130104  0.069963612 
  214000   -1795496.4    10536.326    345.14633     76.89738    88.794136     81.13265     1398.781  0.028918146  0.028008097  0.034117469  0.091043712  0.021556172  0.022484124  0.027202101  0.071242397 
  215000   -1795539.7    10562.977    467.01146     76.89738    88.794136     81.13265    1402.3191  0.028050165  0.028769346  0.033649545  0.090469056  0.021205439   0.02239712  0.026385683  0.069988242 
  216000   -1795469.2    10600.818    879.05334     76.89738    88.794136     81.13265    1407.3429  0.028101329  0.027904176  0.034257377  0.090262882  0.021511092   0.02187208  0.027408139  0.070791312 
  217000   -1795513.5    10526.458    792.87518     76.89738    88.794136     81.13265    1397.4709  0.027841959  0.027450086   0.03312915  0.088421195  0.021516602  0.022202726  0.026334156  0.070053485 
  218000   -1795554.8    10533.585    679.58891     76.89738    88.794136     81.13265    1398.4172  0.027956906  0.028343064   0.03258669   0.08888666  0.021009148  0.022453905  0.025723514  0.069186566 
  219000   -1795564.4    10510.688    250.01762     76.89738    88.794136     81.13265    1395.3773  0.028243644  0.028677215  0.033888395  0.090809255  0.021487797  0.023257684  0.027345157  0.072090638 
  220000   -1795467.6    10551.639    619.56078     76.89738    88.794136     81.13265    1400.8139  0.029092628  0.028303913  0.034110375  0.091506916   0.02212373  0.022514584  0.026581352  0.071219666 
  221000   -1795459.4    10592.232    1051.8543     76.89738    88.794136     81.13265     1406.203  0.029156211  0.028706815  0.034085587  0.091948613  0.022284949  0.022730653  0.026684068   0.07169967 
  222000   -1795528.2    10530.658    516.79392     76.89738    88.794136     81.13265    1398.0286  0.028908172  0.028647044  0.033149245   0.09070446  0.021812693  0.022376033  0.026110801  0.070299527 
  223000   -1795543.2    10533.762    297.91917     76.89738    88.794136     81.13265    1398.4407  0.028411822  0.028334823  0.034513743  0.091260388   0.02125502  0.022475798  0.027393897  0.071124715 
  224000   -1795522.6     10589.05    601.64255     76.89738    88.794136     81.13265    1405.7806   0.02804032    0.0281427  0.032963577  0.089146597  0.021282181  0.022309347  0.025959143  0.069550671 
  225000   -1795489.9    10599.336    911.34938     76.89738    88.794136     81.13265    1407.1461  0.028621737  0.028489834  0.033559087  0.090670658  0.021642476  0.022652793   0.02618953  0.070484799 
  226000     -1795461    10583.339    949.94478     76.89738    88.794136     81.13265    1405.0223  0.028465491  0.028678601   0.03420936  0.091353452  0.021502893  0.022602356  0.027192851    0.0712981 
  227000   -1795510.1    10583.343    572.62277     76.89738    88.794136     81.13265    1405.0229  0.028052779  0.028560201  0.033898858  0.090511838  0.021395289  0.022064207  0.026713074  0.070172571 
  228000   -1795463.9    10509.488    555.89312     76.89738    88.794136     81.13265    1395.2181  0.028159521  0.028720446  0.033632172  0.090512139  0.021500132  0.022427768  0.026790403  0.070718303 
  229000   -1795487.1      10563.4    750.57629     76.89738    88.794136     81.13265    1402.3753   0.02924538  0.029312996  0.033779242  0.092337618  0.021984753  0.022919728  0.026613268  0.071517749 
  230000   -1795572.4    10561.388     303.8614     76.89738    88.794136     81.13265    1402.1082  0.028417455  0.029247216  0.034005942  0.091670612  0.021364825   0.02323023  0.026988562  0.071583618 
  231000   -1795513.6    10514.722    101.16543     76.89738    88.794136     81.13265    1395.9129  0.028212301  0.029148534  0.034129285  0.091490121  0.021486826  0.022858337   0.02686171  0.071206874 
  232000     -1795502    10538.769    890.88672     76.89738    88.794136     81.13265    1399.1054  0.028341564  0.028244017  0.033710595  0.090296177  0.021800071  0.022682252  0.027004392  0.071486716 
  233000     -1795510    10545.707    477.78091     76.89738    88.794136     81.13265    1400.0265  0.028080901  0.028422144  0.033156863  0.089659908  0.020728393  0.022428089  0.026140001  0.069296483 
  234000   -1795556.2    10590.808    170.36287     76.89738    88.794136     81.13265     1406.014  0.028996507  0.028072025  0.034153383  0.091221916  0.021803266  0.022113859  0.027002363  0.070919489 
  235000   -1795519.6    10518.622    908.26687     76.89738    88.794136     81.13265    1396.4306  0.028796954  0.028404855  0.033586436  0.090788245   0.02160736  0.022918028  0.026918865  0.071444253 
  236000   -1795495.7    10574.666    640.60741     76.89738    88.794136     81.13265     1403.871  0.028350481   0.02791893  0.034289081  0.090558492  0.021256548  0.022062339  0.027520382  0.070839269 
  237000   -1795509.4    10547.049     585.8003     76.89738    88.794136     81.13265    1400.2046  0.028458946  0.027645744  0.033916337  0.090021027  0.021325293  0.022347063  0.026931664   0.07060402 
  238000   -1795465.5    10515.803    646.38174     76.89738    88.794136     81.13265    1396.0564  0.028276206  0.027563752  0.033746836  0.089586794  0.021515992  0.021963137  0.027060551   0.07053968 
  239000   -1795460.2    10605.796    1365.1098     76.89738    88.794136     81.13265    1408.0037  0.028783057  0.027546577  0.033356598  0.089686232  0.021693314  0.022278398  0.026473993  0.070445704 
  240000   -1795471.4    10540.002    465.86791     76.89738    88.794136     81.13265    1399.2691   0.02884864  0.027822482  0.033216446  0.089887568  0.021711102  0.022318741   0.02676249  0.070792333 
  241000   -1795470.4    10603.365    834.30269     76.89738    88.794136     81.13265     1407.681  0.028570207  0.027811523  0.033228903  0.089610633  0.021644251  0.022468357  0.026639501   0.07075211 
  242000     -1795541    10590.527    201.30758     76.89738    88.794136     81.13265    1405.9766   0.02843109  0.027568636  0.033835655  0.089835381  0.021407273  0.022534969  0.026663574  0.070605816 
  243000   -1795498.7     10548.76    891.13362     76.89738    88.794136     81.13265    1400.4317  0.027872907  0.027621157  0.033823693  0.089317757  0.021410083  0.021954516  0.026450973  0.069815573 
  244000     -1795410    10499.041    1209.7669     76.89738    88.794136     81.13265    1393.8311  0.028172462  0.028359741  0.033742736  0.090274939   0.02199978  0.022504572  0.027035212  0.071539564 
  245000   -1795488.7    10612.708    670.75513     76.89738    88.794136     81.13265    1408.9213  0.027460684  0.028171634  0.034400547  0.090032864  0.021356172  0.022599733  0.026686138  0.070642043 
  246000   -1795478.2    10530.919    920.11904     76.89738    88.794136     81.13265    1398.0633  0.027940459  0.027979051  0.033608325  0.089527835  0.021806957  0.022565112  0.026787058  0.071159127 
  247000   -1795494.1    10589.499    669.96914     76.89738    88.794136     81.13265    1405.8402  0.027897063  0.027996736  0.033706678  0.089600476  0.021419726  0.022672213  0.026979824  0.071071763 
  248000   -1795450.8    10586.259    1063.4613     76.89738    88.794136     81.13265    1405.4101  0.027894798  0.028623102   0.03351371   0.09003161  0.021595757  0.023090412  0.026448379  0.071134548 
  249000   -1795522.4     10522.36    748.46357     76.89738    88.794136     81.13265    1396.9269  0.028210909  0.028339042  0.033809401  0.090359352  0.021855958  0.022370169   0.02685254  0.071078667 
  250000   -1795479.5    10538.328    377.55895     76.89738    88.794136     81.13265    1399.0468   0.02871273  0.028156059  0.033069817  0.089938606  0.021536809  0.022677715  0.026661872  0.070876397 
  251000     -1795561    10538.197    71.406894     76.89738    88.794136     81.13265    1399.0294  0.028850301  0.027531131  0.033650877  0.090032309  0.021813793  0.022505676  0.026724842   0.07104431 
  252000   -1795479.1    10536.778    518.39245     76.89738    88.794136     81.13265     1398.841  0.027962468  0.028240841  0.032867738  0.089071048  0.021406736  0.022233235  0.026099123  0.069739093 
  253000     -1795479    10541.879    810.02665     76.89738    88.794136     81.13265    1399.5182  0.028037358  0.028575156  0.033927665  0.090540179  0.021395845  0.023227831  0.026528039  0.071151714 
  254000   -1795534.1    10555.757    128.74384     76.89738    88.794136     81.13265    1401.3607  0.028292405   0.02782542  0.034258394  0.090376219  0.021405986  0.022812924  0.027320378  0.071539288 
  255000   -1795474.7    10478.851    734.90854     76.89738    88.794136     81.13265    1391.1508   0.02861228   0.02883465  0.034119963  0.091566894  0.021612198  0.023218247  0.026955296   0.07178574 
  256000   -1795542.3    10527.387    361.05415     76.89738    88.794136     81.13265    1397.5943  0.028780272  0.027904837  0.033734573  0.090419681  0.021545483  0.022774368  0.026589033  0.070908884 
  257000   -1795508.8     10545.81    463.94537     76.89738    88.794136     81.13265      1400.04  0.028459126  0.027378378  0.032981955  0.088819459   0.02111097  0.022236841  0.026208274  0.069556085 
  258000   -1795544.3    10573.159    860.33672     76.89738    88.794136     81.13265    1403.6708  0.028170697  0.027959715    0.0331407  0.089271112  0.021212795   0.02287066  0.026379961  0.070463415 
  259000   -1795473.6    10597.349    619.70217     76.89738    88.794136     81.13265    1406.8823  0.028895677  0.027881393  0.033617246  0.090394315  0.021512939  0.022447178  0.027590978  0.071551095 
  260000   -1795492.3    10545.035    757.48451     76.89738    88.794136     81.13265    1399.9372   0.02916842  0.028621181  0.033871272  0.091660873  0.022476122  0.023305474  0.026835768  0.072617364 
  261000   -1795420.1    10499.414    567.22292     76.89738    88.794136     81.13265    1393.8806  0.028374087  0.027783433  0.033778098  0.089935618  0.021520891  0.022641886  0.027078819  0.071241596 
  262000   -1795476.2    10524.672     269.3798     76.89738    88.794136     81.13265    1397.2339  0.028198595  0.028160516  0.034204177  0.090563289  0.021623814  0.022771573  0.026720589  0.071115977 
  263000   -1795473.6    10555.068    551.48305     76.89738    88.794136     81.13265    1401.2691  0.028493903  0.028444948  0.033217122  0.090155973  0.022372552  0.022463982  0.026308942  0.071145477 
  264000   -1795533.9    10532.376   -80.817293     76.89738    88.794136     81.13265    1398.2567  0.028292638  0.027854902  0.033816883  0.089964424  0.021434455  0.022594716  0.027036234  0.071065405 
  265000   -1795477.1    10549.735     442.0199     76.89738    88.794136     81.13265    1400.5612  0.028330704  0.028479706  0.033488518  0.090298928  0.021742736  0.023004292  0.026785225  0.071532253 
  266000   -1795451.1    10618.596    1245.1502     76.89738    88.794136     81.13265     1409.703  0.028999884  0.028579504  0.033537184  0.091116572   0.02183126  0.023373384  0.026622423  0.071827068 
  267000   -1795518.5     10520.02    591.47646     76.89738    88.794136     81.13265    1396.6163  0.028388806  0.028647709   0.03316329  0.090199805   0.02152469  0.023037174  0.026255976   0.07081784 
  268000   -1795483.5      10526.8    396.34761     76.89738    88.794136     81.13265    1397.5163  0.028603913  0.028146548  0.034334545  0.091085006  0.021425656  0.022640432   0.02748804  0.071554129 
  269000   -1795528.6    10506.484   -63.174651     76.89738    88.794136     81.13265    1394.8193   0.02810407  0.028243051  0.032800706  0.089147827  0.021154175  0.022713808  0.026135892  0.070003875 
  270000   -1795565.9    10579.417    555.69597     76.89738    88.794136     81.13265    1404.5016  0.028824556  0.027810413  0.033525583  0.090160552  0.021763016  0.022308197  0.026658995  0.070730208 
  271000   -1795540.2    10562.253    335.78076     76.89738    88.794136     81.13265     1402.223  0.028963281  0.028440632    0.0339537  0.091357612  0.022073756    0.0226701  0.026759455   0.07150331 
  272000   -1795494.8    10545.164    542.01066     76.89738    88.794136     81.13265    1399.9544  0.028779417  0.029025017  0.033390391  0.091194824  0.021660183  0.023366203  0.026459363  0.071485749 
  273000   -1795538.1     10580.94    660.74654     76.89738    88.794136     81.13265    1404.7039  0.028352617  0.028235482  0.033481267  0.090069365   0.02160371   0.02280131  0.026695227  0.071100247 
  274000   -1795485.7    10558.627    729.56637     76.89738    88.794136     81.13265    1401.7417  0.028684296  0.027751713  0.034393683  0.090829692  0.021929728  0.022637873   0.02764168  0.072209282 
  275000     -1795498    10503.501    915.08538     76.89738    88.794136     81.13265    1394.4233  0.028466934   0.02828624  0.034006472  0.090759646  0.021795782  0.023187043  0.026982202  0.071965027 
  276000   -1795476.1    10535.014    888.29092     76.89738    88.794136     81.13265    1398.6068  0.028232162  0.027812325  0.033955417  0.089999905  0.021341825  0.021996719  0.027127581  0.070466125 
  277000     -1795483    10503.261      706.104     76.89738    88.794136     81.13265    1394.3914  0.028193126  0.027468961  0.033468711  0.089130798  0.021548284  0.022424448  0.026606813  0.070579545 
  278000   -1795486.3     10567.78     652.1794     76.89738    88.794136     81.13265    1402.9568  0.028928927  0.027411899  0.033089669  0.089430495   0.02177332  0.022196559  0.026158528  0.070128407 
  279000   -1795439.1    10512.078    910.70177     76.89738    88.794136     81.13265    1395.5619  0.028782895  0.027915051  0.033623196  0.090321142  0.021674572  0.022865471  0.026974269  0.071514311 
  280000   -1795511.5    10549.333    840.42462     76.89738    88.794136     81.13265    1400.5078  0.028884489   0.02796685  0.033605759  0.090457098  0.021543016  0.022687205  0.026917703  0.071147924 
  281000   -1795472.8    10506.822    575.11431     76.89738    88.794136     81.13265    1394.8641   0.02843378  0.027419593   0.03394743  0.089800803   0.02148303  0.022450731  0.026842088  0.070775849 
  282000   -1795480.8    10582.364    767.22741     76.89738    88.794136     81.13265     1404.893  0.028909078  0.029046046   0.03386212  0.091817244  0.021704087  0.023376135  0.026383849   0.07146407 
  283000   -1795509.4    10532.265     778.7723     76.89738    88.794136     81.13265    1398.2418  0.028989275  0.028066498  0.034375297   0.09143107  0.021463694   0.02256856  0.027452562  0.071484815 
  284000   -1795517.8    10571.788    709.04256     76.89738    88.794136     81.13265    1403.4889  0.028304367  0.028165313  0.033294612  0.089764292   0.02131373  0.022346317   0.02583136  0.069491407 
  285000   -1795478.6    10597.872    903.91214     76.89738    88.794136     81.13265    1406.9517  0.028980246  0.028383658  0.034199023  0.091562927  0.022164723  0.022812092  0.026978579  0.071955395 
  286000   -1795562.9    10623.394    249.30557     76.89738    88.794136     81.13265      1410.34    0.0284056  0.029114302  0.032882193  0.090402095  0.021546247  0.022816481  0.026229649  0.070592377 
  287000   -1795562.3    10605.219    192.25889     76.89738    88.794136     81.13265    1407.9271    0.0279538  0.028304686  0.033248394   0.08950688  0.021190613  0.022557195  0.025956606  0.069704414 
  288000   -1795585.2    10614.664    947.04327     76.89738    88.794136     81.13265     1409.181  0.028557892  0.028812276  0.033397034  0.090767203  0.021884458  0.022384774  0.026201483  0.070470715 
  289000   -1795522.9    10522.552    641.30866     76.89738    88.794136     81.13265    1396.9524  0.028566155  0.028620686  0.033731118  0.090917959  0.021587192  0.023071236   0.02651206  0.071170488 
  290000   -1795493.7    10522.333    586.28574     76.89738    88.794136     81.13265    1396.9234  0.028649493   0.02844972  0.032881603  0.089980816  0.021893637  0.022555703  0.026176382  0.070625722 
  291000   -1795536.8    10552.399    587.95709     76.89738    88.794136     81.13265    1400.9149  0.028938806  0.028432236  0.033459958     0.090831  0.022090973  0.022454712  0.026385219  0.070930904 
  292000   -1795516.5    10533.695     529.5023     76.89738    88.794136     81.13265    1398.4317  0.028452932  0.028902989   0.03317794  0.090533861  0.021632114  0.023030875  0.026275641  0.070938629 
  293000   -1795563.9      10581.7    111.33993     76.89738    88.794136     81.13265    1404.8047  0.028446143  0.028591279  0.033461161  0.090498583  0.021736736  0.023049977  0.026771053  0.071557766 
  294000   -1795480.8    10574.176    750.22924     76.89738    88.794136     81.13265    1403.8059  0.028085923   0.02893431  0.033708301  0.090728535  0.021451917  0.023148199  0.026816862  0.071416978 
  295000   -1795527.7    10580.071    357.17159     76.89738    88.794136     81.13265    1404.5885  0.028525811  0.028114195  0.032778208  0.089418214  0.021883368  0.022240084  0.025815826  0.069939277 
  296000   -1795579.1    10516.822    380.46104     76.89738    88.794136     81.13265    1396.1917  0.028284986  0.027864404  0.034050764  0.090200154  0.021541037  0.022534291  0.026628113  0.070703441 
  297000   -1795528.7    10497.115    300.54444     76.89738    88.794136     81.13265    1393.5755  0.028546239  0.028035199  0.033851622  0.090433061  0.021584291  0.023210652  0.026586508  0.071381452 
  298000   -1795468.8    10585.931    983.94603     76.89738    88.794136     81.13265    1405.3665  0.029010561  0.027592416  0.033898777  0.090501755  0.021768728  0.022528626  0.026405618  0.070702972 
  299000   -1795508.3    10489.737    670.83489     76.89738    88.794136     81.13265    1392.5959  0.029065184  0.028696918  0.034324431  0.092086533  0.022372908  0.023910791  0.026766351   0.07305005 
  300000   -1795559.5    10537.034    177.70494     76.89738    88.794136     81.13265     1398.875  0.027716324  0.027405471  0.034067079  0.089188873  0.021300059    0.0225256  0.027339478  0.071165137 
  301000   -1795489.3    10500.183    815.81746     76.89738    88.794136     81.13265    1393.9828  0.027752596  0.027818438  0.032817863  0.088388897  0.021700463  0.022629401  0.025840246   0.07017011 
  302000   -1795458.8    10525.249    798.81827     76.89738    88.794136     81.13265    1397.3104  0.028347606  0.028558445   0.03388498  0.090791031   0.02152604  0.023317191  0.027415795  0.072259025 
  303000   -1795520.5    10591.258    763.96434     76.89738    88.794136     81.13265    1406.0737  0.027611568  0.028474404  0.033948756  0.090034728  0.021338971  0.023071252  0.027036376  0.071446599 
  304000   -1795473.7    10517.013    347.43367     76.89738    88.794136     81.13265     1396.217  0.028737149  0.028787188   0.03420403  0.091728366  0.021391668  0.022820642  0.027337928  0.071550237 
  305000     -1795502    10551.215    921.07265     76.89738    88.794136     81.13265    1400.7577  0.028282938  0.028213636  0.034064998  0.090561573  0.021451465  0.022317436  0.027174891  0.070943792 
  306000   -1795464.1    10550.464    995.84713     76.89738    88.794136     81.13265     1400.658  0.028918235  0.028599766  0.034389838  0.091907839  0.021898562  0.022969265  0.028087138  0.072954965 
  307000   -1795474.8    10495.788    269.76276     76.89738    88.794136     81.13265    1393.3993  0.029187222  0.028899591  0.034037765  0.092124578  0.021892798   0.02318178  0.027138058  0.072212636 
  308000   -1795516.9    10520.748    968.35288     76.89738    88.794136     81.13265    1396.7129  0.028811233   0.02847122  0.033618154  0.090900607  0.021767659  0.022427164  0.026567117   0.07076194 
  309000   -1795477.2    10547.561    1038.1957     76.89738    88.794136     81.13265    1400.2726  0.028901807  0.028851996  0.034425305  0.092179108  0.021644272  0.022697269  0.027109003  0.071450544 
  310000     -1795551     10518.58      332.884     76.89738    88.794136     81.13265    1396.4251  0.029293574  0.028821769  0.033245807   0.09136115  0.022411842  0.022888327   0.02657326  0.071873429 
  311000   -1795484.9    10595.075    875.82447     76.89738    88.794136     81.13265    1406.5804   0.02856881  0.029103965  0.034660528  0.092333304  0.021839683  0.022587948  0.027241668  0.071669299 
  312000   -1795439.4    10519.704    689.78792     76.89738    88.794136     81.13265    1396.5744  0.028550774  0.028907709  0.034085288  0.091543771  0.021932872  0.022848673  0.027167704  0.071949249 
  313000   -1795526.6    10448.636    586.33053     76.89738    88.794136     81.13265    1387.1395  0.028525674  0.028448582  0.034406648  0.091380903  0.021347691  0.022463002  0.027135275  0.070945968 
  314000   -1795519.2    10503.882    416.07717     76.89738    88.794136     81.13265    1394.4738  0.029091096    0.0289476  0.033731311  0.091770007  0.022125498  0.022854684  0.026601436  0.071581619 
  315000   -1795539.3    10526.335     487.0734     76.89738    88.794136     81.13265    1397.4546  0.028255148  0.029010061  0.033540783  0.090805991  0.021568838  0.022787631  0.026656503  0.071012972 
  316000   -1795508.1    10534.106    1116.5319     76.89738    88.794136     81.13265    1398.4863   0.02860335  0.029099293  0.033882403  0.091585047  0.021647246  0.022928484  0.026778241  0.071353972 
  317000   -1795510.1    10583.431    715.08444     76.89738    88.794136     81.13265    1405.0346  0.029258402  0.029596936   0.03343461  0.092289948  0.022359305  0.023114689  0.026496015  0.071970009 
  318000   -1795513.9    10569.186    668.78355     76.89738    88.794136     81.13265    1403.1435  0.029194411   0.02860345  0.034332937  0.092130798  0.022145496   0.02295344  0.027249797  0.072348733 
  319000     -1795454     10569.99    647.12991     76.89738    88.794136     81.13265    1403.2502  0.028477366  0.028880079  0.033774288  0.091131733  0.021868852  0.022565769  0.026335713  0.070770334 
  320000   -1795466.5     10520.31    22.894674     76.89738    88.794136     81.13265    1396.6548  0.029111963  0.028704489   0.03298149  0.090797942  0.022408961  0.022510981  0.026086075  0.071006017 
  321000   -1795506.4    10512.949    837.68418     76.89738    88.794136     81.13265    1395.6776  0.029211943  0.029009805  0.033803873   0.09202562  0.021383843  0.022802755  0.026832083  0.071018681 
  322000   -1795462.5    10526.763    667.66119     76.89738    88.794136     81.13265    1397.5115  0.029250127  0.028552705  0.034239262  0.092042095  0.021962764   0.02257014  0.026734056  0.071266959 
  323000   -1795489.2    10497.562     332.4535     76.89738    88.794136     81.13265    1393.6348  0.028705215  0.028219795  0.034016834  0.090941844   0.02150221  0.022433511  0.027033184  0.070968905 
  324000   -1795493.4    10511.164    593.82931     76.89738    88.794136     81.13265    1395.4405   0.02876807  0.029124072  0.033382916  0.091275058  0.021718333  0.023184381  0.026282638  0.071185352 
  325000   -1795466.6    10569.181    729.70641     76.89738    88.794136     81.13265    1403.1428  0.028979362  0.029073881  0.034837316  0.092890559   0.02134827   0.02253688  0.027634762  0.071519912 
  326000   -1795485.3    10530.626    556.24081     76.89738    88.794136     81.13265    1398.0243  0.028912549  0.029199375  0.033723158  0.091835082  0.021572645  0.022624746  0.026352833  0.070550223 
  327000   -1795498.2    10496.393    841.03426     76.89738    88.794136     81.13265    1393.4796  0.028933832   0.02907035  0.033735014  0.091739196  0.021777896  0.022851774  0.025959859   0.07058953 
  328000   -1795509.5    10570.643    388.91832     76.89738    88.794136     81.13265    1403.3369  0.028922621  0.028653642  0.034769191  0.092345454  0.021340309  0.021969849   0.02749077  0.070800928 
  329000   -1795467.7    10557.824    989.51725     76.89738    88.794136     81.13265     1401.635  0.029526127  0.029123418  0.034388938  0.093038483  0.022495566  0.022856849  0.026591336  0.071943751 
  330000   -1795454.7    10603.849    653.01078     76.89738    88.794136     81.13265    1407.7452  0.029665838  0.028928081  0.034049295  0.092643214  0.022044769  0.022239293  0.026313795  0.070597857 
  331000   -1795494.8    10558.255    267.08377     76.89738    88.794136     81.13265    1401.6922  0.028932772  0.029678086  0.034585882   0.09319674  0.022002443  0.023023544  0.027284226  0.072310213 
  332000   -1795488.9    10553.942    461.52108     76.89738    88.794136     81.13265    1401.1197  0.028617283  0.029623336  0.034162998  0.092403618  0.021537258  0.022717212  0.026946205  0.071200674 
  333000     -1795460    10554.217    1024.6394     76.89738    88.794136     81.13265    1401.1562  0.029244879  0.029729616  0.034193976  0.093168471  0.022002071  0.023400686   0.02731828  0.072721037 
  334000   -1795556.3    10579.421    548.77466     76.89738    88.794136     81.13265    1404.5022  0.028734345  0.029098189  0.033709924  0.091542459  0.021775331  0.022790314  0.026581578  0.071147223 
  335000     -1795534     10533.17    346.02349     76.89738    88.794136     81.13265     1398.362  0.028772217  0.028953201  0.034274292  0.091999709  0.021463258  0.022766833  0.026784821  0.071014912 
  336000   -1795457.1      10490.1    1271.1198     76.89738    88.794136     81.13265    1392.6441  0.029259226  0.028868985  0.033923214  0.092051426  0.022167356  0.022531449  0.025828653  0.070527457 
  337000   -1795485.5    10546.719    910.59843     76.89738    88.794136     81.13265    1400.1608   0.02877935  0.028479643  0.034478031  0.091737024  0.021494283  0.022323108   0.02693338  0.070750771 
  338000   -1795501.8    10590.144    688.12395     76.89738    88.794136     81.13265    1405.9258  0.028614455  0.028756166  0.034293139   0.09166376  0.021451834  0.022580941  0.026465041  0.070497816 
  339000   -1795505.5    10501.924    448.16535     76.89738    88.794136     81.13265    1394.2138  0.028456735  0.029482452  0.033889422  0.091828609  0.021308593  0.022870307  0.026364586  0.070543486 
  340000   -1795555.2    10475.915     283.8003     76.89738    88.794136     81.13265     1390.761  0.028915399  0.028775868  0.034496125  0.092187392  0.021895462  0.022533731  0.027476645  0.071905838 
  341000   -1795494.7    10604.018    1012.2604     76.89738    88.794136     81.13265    1407.7677  0.028939921  0.028715507  0.033860263  0.091515691  0.022078662  0.022620435  0.026188553   0.07088765 
  342000   -1795550.2    10542.756    504.06921     76.89738    88.794136     81.13265    1399.6347  0.028857439  0.029421604  0.033843755  0.092122797  0.022161807  0.022762073  0.026523092  0.071446972 
  343000   -1795510.9    10611.133    671.24375     76.89738    88.794136     81.13265    1408.7122  0.029185619  0.028267964   0.03422172  0.091675303  0.022089359   0.02259277  0.026859176  0.071541305 
  344000   -1795420.6    10563.901    919.08326     76.89738    88.794136     81.13265    1402.4419  0.029411187  0.028676106  0.033603519  0.091690813   0.02202279  0.022687839  0.026197379  0.070908008 
  345000   -1795485.7    10506.477    613.48929     76.89738    88.794136     81.13265    1394.8184  0.028926105  0.028590537  0.033969789  0.091486431  0.021612448  0.022579598  0.026841986  0.071034032 
  346000   -1795470.5    10588.225    1145.1079     76.89738    88.794136     81.13265     1405.671  0.029116343  0.028799067  0.034255329  0.092170739  0.021498612  0.022632817  0.026462096  0.070593526 
  347000   -1795546.9    10558.556    358.26308     76.89738    88.794136     81.13265    1401.7322   0.02954474  0.029199589  0.033885054  0.092629383  0.022394423  0.022559969  0.026034651  0.070989043 
  348000   -1795486.6    10519.341    796.19094     76.89738    88.794136     81.13265    1396.5262  0.029054508  0.029508868  0.033807815  0.092371191  0.021692013  0.023008442  0.026275605   0.07097606 
  349000   -1795520.5    10526.519    597.29713     76.89738    88.794136     81.13265    1397.4791  0.028304472  0.029095307  0.033933377  0.091333156  0.021284751   0.02307033  0.026544691  0.070899773 
  350000   -1795549.6    10573.019    2.1295648     76.89738    88.794136     81.13265    1403.6523  0.028937748  0.029203526  0.033471826    0.0916131  0.021393857  0.023150763  0.026741844  0.071286463 
  351000   -1795527.8    10488.817    808.46165     76.89738    88.794136     81.13265    1392.4739  0.028613169  0.029171786  0.034824646  0.092609601  0.021716126  0.023008189  0.026990302  0.071714617 
  352000     -1795488    10546.955    591.17803     76.89738    88.794136     81.13265    1400.1921  0.029210805  0.029633233  0.034239615  0.093083652  0.021803236  0.023324013  0.026744105  0.071871354 
  353000   -1795468.3      10565.3    744.02268     76.89738    88.794136     81.13265    1402.6275  0.028770718  0.028643404  0.034426873  0.091840995  0.021592066  0.022415621  0.027277825  0.071285512 
  354000   -1795501.6     10530.76     620.8413     76.89738    88.794136     81.13265    1398.0421  0.028981693  0.029745171  0.035207002  0.093933867  0.021997705  0.023225567   0.02753295  0.072756222 
  355000     -1795507    10587.907    1022.0299     76.89738    88.794136     81.13265    1405.6289  0.029053518  0.029973887   0.03375612  0.092783526  0.021951858  0.023256513  0.026725874  0.071934245 
  356000   -1795521.8    10533.437    542.84173     76.89738    88.794136     81.13265    1398.3975  0.028314403  0.029663256  0.035090872  0.093068531  0.021111754  0.022732152  0.028015083  0.071858989 
  357000   -1795442.2    10515.011    487.87492     76.89738    88.794136     81.13265    1395.9513  0.029250575  0.030383351  0.033924711  0.093558638  0.022133394   0.02386568  0.026867113  0.072866188 
  358000   -1795459.1    10523.354    873.29717     76.89738    88.794136     81.13265    1397.0589  0.028662073  0.029428311  0.034308571  0.092398955  0.021755547  0.022748062  0.027483645  0.071987254 
  359000   -1795543.1     10606.45    768.68028     76.89738    88.794136     81.13265    1408.0905  0.028626932  0.029622696  0.034242667  0.092492295  0.021441131  0.023550933  0.027538729  0.072530793 
  360000   -1795475.9    10509.443    526.70688     76.89738    88.794136     81.13265    1395.2121  0.028536673  0.029443392  0.033760902  0.091740967  0.021966259  0.022798454  0.026608698  0.071373411 
  361000   -1795552.9    10541.051    379.51402     76.89738    88.794136     81.13265    1399.4083  0.028907685  0.030401536  0.034424371  0.093733592  0.022039334  0.023047412   0.02671018  0.071796926 
  362000   -1795477.3    10575.171    1035.2382     76.89738    88.794136     81.13265     1403.938  0.027723262  0.029886977  0.034443054  0.092053293  0.021270753  0.023126806  0.027287633  0.071685192 
  363000   -1795505.8    10571.521    684.82081     76.89738    88.794136     81.13265    1403.4534  0.028199626  0.030063089  0.034549608  0.092812323  0.021210382  0.023045699  0.027479268  0.071735348 
  364000   -1795564.4    10577.271    440.35239     76.89738    88.794136     81.13265    1404.2168  0.028015308  0.029379022  0.033796847  0.091191177  0.021269397   0.02248692   0.02695526  0.070711577 
  365000   -1795587.5     10589.73   -66.672093     76.89738    88.794136     81.13265    1405.8708  0.028589902  0.029321157  0.034087304  0.091998363  0.021778639  0.022602009  0.026436666  0.070817313 
  366000   -1795463.4    10543.943    780.10107     76.89738    88.794136     81.13265    1399.7922  0.029052881  0.028702236  0.034794385  0.092549501  0.022251014  0.022685146  0.027258843  0.072195004 
  367000   -1795500.1    10555.173    560.06672     76.89738    88.794136     81.13265    1401.2831  0.029035947  0.028558296  0.032771055  0.090365299  0.021879441  0.022133605  0.025842777  0.069855823 
  368000   -1795542.2    10554.247    440.05213     76.89738    88.794136     81.13265    1401.1601  0.029415088  0.029554944  0.034815391  0.093785423  0.022479577  0.022888877  0.027748252  0.073116706 
  369000   -1795503.7    10570.134    680.60441     76.89738    88.794136     81.13265    1403.2693  0.028247483  0.029369617  0.033441607  0.091058708   0.02157984  0.023234835  0.026524211  0.071338886 
  370000     -1795505    10541.018    728.50337     76.89738    88.794136     81.13265     1399.404  0.029160961  0.029150842  0.034279271  0.092591073  0.021890938  0.022578999   0.02733087  0.071800807 
  371000   -1795426.2     10531.75    786.40695     76.89738    88.794136     81.13265    1398.1735  0.028757614  0.029638775  0.033370639  0.091767028  0.021948656  0.022893165  0.026628153  0.071469974 
  372000   -1795538.7    10576.491    659.31022     76.89738    88.794136     81.13265    1404.1132  0.029134139  0.029727081  0.034194118  0.093055338  0.021777744  0.023112297  0.026733605  0.071623647 
  373000   -1795427.7    10465.571    516.71721     76.89738    88.794136     81.13265    1389.3878  0.029637765  0.028990711  0.034490029  0.093118504  0.022443286  0.022796072  0.027706915  0.072946272 
  374000   -1795452.2    10565.293    833.38081     76.89738    88.794136     81.13265    1402.6266  0.029272562  0.030167693  0.033721349  0.093161603  0.021887467  0.023719846  0.026511614  0.072118927 
  375000   -1795487.7    10524.342    380.53728     76.89738    88.794136     81.13265    1397.1901  0.029561502  0.029487365  0.034976506  0.094025373  0.021966641  0.023584734   0.02828571  0.073837085 
  376000   -1795547.1    10533.345    234.26809     76.89738    88.794136     81.13265    1398.3853  0.029647374  0.029581607  0.032737736  0.091966717  0.022333812  0.023457388  0.025892022  0.071683223 
  377000   -1795571.2    10546.432    334.68226     76.89738    88.794136     81.13265    1400.1226  0.029114975   0.02893841  0.034714109  0.092767494  0.021979043  0.023011643  0.027207361  0.072198047 
  378000   -1795484.3    10506.281    374.48377     76.89738    88.794136     81.13265    1394.7923  0.028672773  0.028902446  0.034210929  0.091786148   0.02199575  0.023091629  0.026891546  0.071978925 
  379000   -1795521.5    10564.413    821.46332     76.89738    88.794136     81.13265    1402.5098  0.028239052  0.029172211  0.033481659  0.090892922  0.021630793  0.023243384  0.026094588  0.070968765 
  380000   -1795476.5    10553.476     658.0063     76.89738    88.794136     81.13265    1401.0579  0.029498152   0.02900541  0.034411291  0.092914853  0.022615187  0.022910838   0.02712255  0.072648575 
  381000     -1795434    10544.746    884.36599     76.89738    88.794136     81.13265    1399.8988  0.028447337  0.028575872  0.034042791     0.091066  0.021250692  0.022710419  0.026804995  0.070766106 
  382000   -1795505.1    10499.519    289.91634     76.89738    88.794136     81.13265    1393.8946  0.029146659  0.028780116  0.034832825  0.092759601  0.022360138  0.022607908  0.028189042  0.073157088 
  383000   -1795476.1    10519.196    623.01586     76.89738    88.794136     81.13265    1396.5069   0.02847076  0.029047844  0.033939761  0.091458366  0.021515165  0.023284701  0.026682164  0.071482029 
  384000   -1795519.9    10584.014    738.17899     76.89738    88.794136     81.13265     1405.112   0.02911978  0.029304495  0.036238059  0.094662334  0.021857488  0.023276377  0.028704484  0.073838349 
  385000   -1795404.8    10536.935    1331.0056     76.89738    88.794136     81.13265    1398.8619  0.029314399  0.029289141  0.034407692  0.093011233  0.021904164  0.022936049  0.026871985  0.071712199 
  386000   -1795545.2    10589.059    1.1152491     76.89738    88.794136     81.13265    1405.7817  0.029132607  0.029341774  0.034147278   0.09262166  0.021437787  0.023662956  0.026805735  0.071906478 
  387000   -1795565.3    10515.123    388.07483     76.89738    88.794136     81.13265    1395.9661  0.029006172  0.028754534  0.035345512  0.093106218  0.021164982  0.022881051  0.028245189  0.072291223 
  388000   -1795506.5    10547.051    707.41893     76.89738    88.794136     81.13265    1400.2048  0.028684588  0.028835702  0.033018452  0.090538742  0.021478044  0.022215456  0.026290666  0.069984166 
  389000   -1795509.6    10538.351    271.59763     76.89738    88.794136     81.13265    1399.0499  0.028974428  0.029163883  0.035613508  0.093751819  0.022080632  0.022970581  0.028205205  0.073256418 
  390000   -1795514.1    10534.128    489.89043     76.89738    88.794136     81.13265    1398.4892  0.029222742  0.028536686   0.03408416  0.091843588  0.021631365  0.022708588  0.026890267  0.071230221 
  391000   -1795493.8    10608.693    967.36609     76.89738    88.794136     81.13265    1408.3883  0.029978784  0.028488163  0.034481381  0.092948328   0.02252299  0.022821347  0.027157565  0.072501903 
  392000   -1795535.8    10611.304    948.48962     76.89738    88.794136     81.13265     1408.735  0.029384587  0.028316092  0.034755877  0.092456556  0.021909965  0.022575698  0.028129634  0.072615297 
  393000   -1795505.1    10566.633    743.55507     76.89738    88.794136     81.13265    1402.8046  0.029578263  0.028270032   0.03328667  0.091134965  0.021525736  0.022416045  0.026279902  0.070221682 
  394000   -1795549.7    10538.259    326.82731     76.89738    88.794136     81.13265    1399.0376  0.030036456  0.028409824  0.034335826  0.092782106    0.0216353  0.022519021  0.027650554  0.071804875 
  395000     -1795511    10509.084    267.48199     76.89738    88.794136     81.13265    1395.1644  0.030897447  0.028574276  0.033435735  0.092907458   0.02270678  0.022652979  0.026059888  0.071419648 
  396000   -1795494.2    10546.798     877.3089     76.89738    88.794136     81.13265    1400.1713   0.03055456  0.028898148  0.035926685  0.095379392  0.022634588  0.023144645  0.027776302  0.073555535 
  397000   -1795484.7    10569.603    683.71079     76.89738    88.794136     81.13265    1403.1988  0.029713004   0.02865434  0.034458289  0.092825634  0.021762529  0.022950572  0.027780646  0.072493747 
  398000   -1795492.4     10546.18    788.27246     76.89738    88.794136     81.13265    1400.0892   0.02974349  0.028609397   0.03491961  0.093272497  0.021731857     0.022703  0.028070408  0.072505265 
  399000   -1795539.5    10579.142    763.03769     76.89738    88.794136     81.13265    1404.4653  0.030373625  0.028144202  0.035188981  0.093706809  0.022342512  0.022790887  0.027501108  0.072634507 
  400000   -1795533.7    10574.491    637.58222     76.89738    88.794136     81.13265    1403.8477  0.029764995  0.028550939  0.033095565  0.091411499  0.021785875  0.022728807  0.026212989  0.070727671 
  401000   -1795445.9    10514.625    1088.4918     76.89738    88.794136     81.13265       1395.9  0.029784197   0.02848184   0.03587434  0.094140376   0.02196742  0.022393491   0.02856398  0.072924891 
  402000   -1795454.6    10503.121    584.95198     76.89738    88.794136     81.13265    1394.3728  0.030216164  0.028396893  0.033206227  0.091819284  0.021825238  0.022265448  0.026292215    0.0703829 
  403000   -1795458.9    10574.905    910.71666     76.89738    88.794136     81.13265    1403.9026  0.029425834  0.028466692  0.035046181  0.092938707  0.021329072  0.022307747  0.027448052  0.071084871 
  404000   -1795494.3    10600.695    1004.5726     76.89738    88.794136     81.13265    1407.3265  0.029634296  0.029117976  0.034906477  0.093658749  0.021651091   0.02277497    0.0273281  0.071754161 
  405000     -1795443    10549.758    1245.4289     76.89738    88.794136     81.13265    1400.5643  0.029470974  0.028878288  0.034209747   0.09255901   0.02171411   0.02288769  0.027169201  0.071771001 
  406000   -1795438.4    10547.829    1086.7476     76.89738    88.794136     81.13265    1400.3082  0.029593973  0.028728054  0.035478526  0.093800553  0.021342809  0.022517156  0.028199012  0.072058977 
  407000   -1795515.1    10514.978    312.18344     76.89738    88.794136     81.13265    1395.9469  0.029447671  0.029134812  0.033938214  0.092520698  0.021258798  0.023074843  0.026346704  0.070680345 
  408000   -1795469.5    10609.153    1071.0275     76.89738    88.794136     81.13265    1408.4494  0.030273668  0.028470139  0.035008064  0.093751871  0.022148972  0.022658584  0.027304101  0.072111657 
  409000   -1795472.3     10508.79    1053.7617     76.89738    88.794136     81.13265    1395.1254  0.030256982  0.028995925  0.034579773   0.09383268  0.022222871    0.0227254  0.027326178   0.07227445 
  410000   -1795477.7    10551.437     619.0659     76.89738    88.794136     81.13265    1400.7871  0.029372593  0.028466188  0.034251052  0.092089833  0.022004638   0.02271782  0.027507171  0.072229629 
  411000   -1795478.4    10572.123    912.55853     76.89738    88.794136     81.13265    1403.5333  0.029017666  0.028754393  0.034077768  0.091849826   0.02140313  0.022676658  0.026981302   0.07106109 
  412000   -1795528.1    10528.002    441.78147     76.89738    88.794136     81.13265     1397.676  0.028723468  0.028513434  0.034070226  0.091307128  0.021368286   0.02275829  0.026692531  0.070819107 
  413000   -1795460.3    10544.425    711.68561     76.89738    88.794136     81.13265    1399.8562  0.029035117  0.028349629  0.035625539  0.093010285  0.022507125  0.022758276  0.027962918  0.073228319 
  414000   -1795470.8    10567.999    805.95974     76.89738    88.794136     81.13265    1402.9859  0.029037785  0.027962167  0.035017249    0.0920172  0.022062832  0.022734853  0.027486676   0.07228436 
  415000   -1795489.3    10521.285    1084.2063     76.89738    88.794136     81.13265    1396.7843  0.029152759   0.02844115  0.034796167  0.092390077  0.022474766  0.022870489  0.027373775  0.072719031 
  416000   -1795523.6    10568.838    694.25804     76.89738    88.794136     81.13265    1403.0972  0.029446711  0.028249121  0.034191615  0.091887447  0.022219512  0.022967694  0.026993618  0.072180824 
  417000   -1795454.9    10537.317    848.76899     76.89738    88.794136     81.13265    1398.9126  0.029376179  0.029072709  0.034775032   0.09322392  0.021744516  0.023403555  0.027503725  0.072651796 
  418000   -1795494.6    10565.085    892.90604     76.89738    88.794136     81.13265     1402.599  0.029518751  0.028758454  0.034601671  0.092878876  0.021953349  0.023035784  0.027190361  0.072179493 
  419000   -1795495.4    10536.885    554.29455     76.89738    88.794136     81.13265    1398.8552  0.029275797  0.028556716   0.03425612  0.092088634  0.022175544  0.022792321  0.027040463  0.072008327 
  420000   -1795513.4    10577.339    552.25158     76.89738    88.794136     81.13265    1404.2259  0.028683641  0.028713906  0.034654041  0.092051588   0.02181373   0.02304325  0.027648295  0.072505274 
  421000   -1795569.2    10534.809    372.64198     76.89738    88.794136     81.13265    1398.5797  0.029090488  0.028340615  0.034275504  0.091706607  0.021947148   0.02272788  0.026667088  0.071342116 
  422000     -1795537    10528.093    224.87112     76.89738    88.794136     81.13265     1397.688  0.029225247  0.028907232  0.034518642  0.092651121  0.022278206  0.023064682  0.027284168  0.072627055 
  423000   -1795509.8    10469.724    380.08973     76.89738    88.794136     81.13265    1389.9391  0.029529603  0.028865754  0.034194594  0.092589952  0.021713798  0.022899443  0.026839534  0.071452775 
  424000   -1795430.8    10474.117    1042.0156     76.89738    88.794136     81.13265    1390.5223  0.029550301  0.028613698  0.034274584  0.092438584  0.021932611  0.022725467  0.027045925  0.071704002 
  425000   -1795497.2    10574.775    740.58248     76.89738    88.794136     81.13265    1403.8854  0.029310791  0.028188012  0.034543265  0.092042068  0.021607691  0.022026092  0.027717193  0.071350976 
  426000   -1795538.6    10535.377   -90.610878     76.89738    88.794136     81.13265     1398.655    0.0293082  0.029181707  0.034084688  0.092574596  0.021688756  0.022793069  0.026837552  0.071319377 
  427000   -1795460.6    10519.633    590.38835     76.89738    88.794136     81.13265    1396.5649  0.029975021  0.029417004   0.03458146  0.093973485  0.021761569  0.023501704  0.027433831  0.072697104 
  428000   -1795469.6    10535.294    631.13352     76.89738    88.794136     81.13265     1398.644  0.030026717   0.02905424  0.034583633   0.09366459  0.021383276  0.023046401   0.02689943  0.071329106 
  429000   -1795499.7    10556.538    597.11813     76.89738    88.794136     81.13265    1401.4643  0.030606824  0.028646678  0.035373059  0.094626561  0.021611107  0.022875049  0.028016326  0.072502482 
  430000   -1795550.4    10549.781    91.020193     76.89738    88.794136     81.13265    1400.5673  0.031152792  0.028797645  0.033557533   0.09350797    0.0219153  0.023085327  0.026691542  0.071692169 
  431000   -1795493.9    10466.824    471.58996     76.89738    88.794136     81.13265     1389.554  0.030080395  0.028783108  0.034357966  0.093221469  0.021730331  0.022981012   0.02739577  0.072107113 
  432000   -1795462.5    10519.243    891.23156     76.89738    88.794136     81.13265    1396.5131  0.029996487  0.028665072  0.035588401  0.094249961  0.021394378  0.022785387   0.02814368  0.072323445 
  433000   -1795488.5    10565.789    821.80226     76.89738    88.794136     81.13265    1402.6924   0.02961286   0.02904459  0.033567283  0.092224733  0.022028547  0.023229077  0.026609441  0.071867065 
  434000   -1795477.6    10536.301    621.49517     76.89738    88.794136     81.13265    1398.7777   0.03020505  0.029136575  0.035631097  0.094972722  0.022189331  0.023120296   0.02789421  0.073203837 
  435000   -1795563.5    10503.942    42.405588     76.89738    88.794136     81.13265    1394.4818  0.029091103  0.028598124  0.033841899  0.091531126  0.021159206  0.023108137  0.026800108   0.07106745 
  436000   -1795500.7    10585.067    718.73407     76.89738    88.794136     81.13265    1405.2518   0.02921373  0.028480094  0.035253061  0.092946886  0.021652083  0.022856371  0.027577883  0.072086337 
  437000   -1795474.5    10578.734    1373.3542     76.89738    88.794136     81.13265    1404.4111  0.029727043  0.028930679  0.034956812  0.093614534  0.022155384  0.023515461   0.02744483  0.073115676 
  438000   -1795509.3    10585.181    728.97923     76.89738    88.794136     81.13265     1405.267  0.029391104  0.028819657   0.03372619  0.091936951   0.02208184   0.02291628  0.026973231   0.07197135 
  439000     -1795523    10522.058    607.40652     76.89738    88.794136     81.13265    1396.8868  0.029381375  0.028203039  0.035330387  0.092914802  0.021634685  0.022326498  0.028149769  0.072110952 
  440000   -1795510.2    10583.355    497.62838     76.89738    88.794136     81.13265    1405.0245  0.029390258  0.028733822  0.033433675  0.091557755  0.021783791   0.02294196  0.026008955  0.070734706 
  441000   -1795495.4    10512.944    900.18309     76.89738    88.794136     81.13265    1395.6768  0.029541913  0.028668657  0.035767679  0.093978249  0.021828863   0.02308519  0.028604461  0.073518514 
  442000   -1795525.7    10546.475    751.43716     76.89738    88.794136     81.13265    1400.1284  0.029240844  0.028384902  0.034062581  0.091688326  0.021578365   0.02236651   0.02688458  0.070829455 
  443000   -1795505.9     10555.28    994.21661     76.89738    88.794136     81.13265    1401.2973  0.029404133  0.028798732  0.035334578  0.093537443  0.021789591  0.022808031   0.02849014  0.073087762 
  444000   -1795504.2    10524.959    317.87663     76.89738    88.794136     81.13265    1397.2719  0.029844745   0.02933105   0.03428639  0.093462185  0.022434731  0.022895365  0.026440079  0.071770175 
  445000     -1795508    10651.006    487.92803     76.89738    88.794136     81.13265    1414.0057  0.029670435  0.029163462  0.033886916  0.092720813  0.021787503  0.022949251  0.027068511  0.071805264 
  446000   -1795529.9    10564.476    640.33736     76.89738    88.794136     81.13265    1402.5182  0.029808098  0.028394556  0.035163988  0.093366641  0.021445296  0.022021513  0.027829665  0.071296474 
  447000   -1795495.9    10507.289    666.89637     76.89738    88.794136     81.13265    1394.9261   0.02988575  0.029036804   0.03366244  0.092584993  0.021723268  0.022396441  0.026445175  0.070564883 
  448000   -1795521.5     10570.13    412.80139     76.89738    88.794136     81.13265    1403.2688  0.029416742  0.028715838   0.03408782  0.092220399  0.021490016  0.022829748  0.027360531  0.071680294 
  449000   -1795476.9    10527.394    569.85579     76.89738    88.794136     81.13265    1397.5952  0.029928251  0.028652122  0.034152719  0.092733091  0.021920353  0.022456401  0.027088936  0.071465691 
  450000   -1795517.3     10575.75    568.54212     76.89738    88.794136     81.13265    1404.0149  0.029825789    0.0292952  0.033567679  0.092688667  0.021981276  0.022834429  0.026370013  0.071185718 
  451000   -1795514.7    10507.081    634.80822     76.89738    88.794136     81.13265    1394.8985  0.029880426  0.029624755  0.034412592  0.093917773  0.022090102  0.023090555  0.027358409  0.072539066 
  452000   -1795482.8    10545.849    642.66407     76.89738    88.794136     81.13265    1400.0452   0.03019641  0.028929364  0.033387332  0.092513106  0.022214292  0.022547856  0.026465311  0.071227459 
  453000   -1795595.6    10566.067    4.6549241     76.89738    88.794136     81.13265    1402.7294  0.029641239  0.029301295  0.034014835  0.092957369  0.022017814  0.023092874  0.026916821  0.072027509 
  454000   -1795502.7    10560.132    1018.1608     76.89738    88.794136     81.13265    1401.9415  0.029223873  0.029406473  0.033782068  0.092412414  0.021240853  0.022870991  0.026544542  0.070656386 
  455000   -1795500.5    10517.108    721.67912     76.89738    88.794136     81.13265    1396.2297  0.028663778  0.029624692  0.035247834  0.093536303  0.021116539  0.022859443  0.027748941  0.071724922 
  456000   -1795432.7    10502.844    1261.4647     76.89738    88.794136     81.13265     1394.336  0.029956429  0.029632866  0.034365964   0.09395526  0.022389313  0.023678606   0.02681269   0.07288061 
  457000   -1795503.1    10542.018    867.74637     76.89738    88.794136     81.13265    1399.5367  0.029140005  0.029353227  0.033546259  0.092039491  0.021448604  0.022586861  0.026607174  0.070642639 
  458000   -1795521.1    10530.369    892.34892     76.89738    88.794136     81.13265    1397.9901    0.0294467  0.029074532   0.03453496  0.093056192  0.022090322  0.022619592  0.027562557  0.072272471 
  459000   -1795547.9    10538.128     293.7677     76.89738    88.794136     81.13265    1399.0202  0.029477149   0.02938525  0.033174622  0.092037022  0.021997588  0.023237257  0.026296905   0.07153175 
  460000   -1795583.2    10563.884   -9.5044551     76.89738    88.794136     81.13265    1402.4395  0.029661401  0.029250347  0.034054611  0.092966359  0.021369858  0.022947734  0.026823107  0.071140699 
  461000   -1795453.4    10617.084    1203.9183     76.89738    88.794136     81.13265    1409.5023  0.029317479   0.02926338  0.033988185  0.092569045  0.022275947  0.023254632  0.026987338  0.072517917 
  462000   -1795587.2    10582.501    454.35359     76.89738    88.794136     81.13265    1404.9111  0.028994621  0.029318136   0.03337799  0.091690747  0.021863337  0.023157998   0.02655108  0.071572414 
  463000   -1795491.8    10556.332    468.00751     76.89738    88.794136     81.13265     1401.437  0.029775062  0.029342163  0.033784297  0.092901522  0.022344628  0.023033779  0.026633238  0.072011646 
  464000   -1795559.9    10588.548    569.49528     76.89738    88.794136     81.13265     1405.714  0.029323563  0.029796178  0.033714562  0.092834303  0.021897608  0.023367338  0.026588658  0.071853604 
  465000   -1795475.6    10540.013    318.27262     76.89738    88.794136     81.13265    1399.2706  0.029756229  0.030073964  0.034343831  0.094174024  0.022246725  0.023132211  0.027791544   0.07317048 
  466000   -1795506.8    10580.838    689.90114     76.89738    88.794136     81.13265    1404.6903  0.029243743  0.029986575  0.033841205  0.093071523  0.021924081  0.023603002  0.026752873  0.072279955 
  467000   -1795482.6    10557.581    921.13397     76.89738    88.794136     81.13265    1401.6028  0.029382969  0.029313531  0.035541892  0.094238392  0.021918719  0.023182904  0.028036613  0.073138236 
  468000     -1795467    10523.779    699.07386     76.89738    88.794136     81.13265    1397.1154  0.029702273    0.0302895  0.034134892  0.094126665  0.022322968  0.023545276  0.027182431  0.073050674 
  469000   -1795483.5    10512.523    418.26605     76.89738    88.794136     81.13265    1395.6209  0.029491265  0.029841383  0.033987803  0.093320451  0.021903995  0.023069764  0.026925455  0.071899214 
  470000   -1795504.7    10519.193    483.02354     76.89738    88.794136     81.13265    1396.5065  0.029374722  0.029159797  0.034648617  0.093183137  0.022301287  0.023320289  0.027968353  0.073589928 
  471000   -1795559.9     10552.16    426.69677     76.89738    88.794136     81.13265    1400.8831  0.028991664  0.029567647  0.033774691  0.092334002  0.021897417  0.023617975   0.02650143  0.072016822 
  472000   -1795497.1    10479.804    460.79036     76.89738    88.794136     81.13265    1391.2773  0.029089263  0.029185824  0.034275525  0.092550612  0.021803453  0.022892709  0.026610314  0.071306477 
  473000   -1795505.7    10546.923    522.62684     76.89738    88.794136     81.13265    1400.1879  0.029076792  0.028622331  0.033717537  0.091416659  0.021794001  0.022762033  0.026611273  0.071167307 
  474000   -1795573.3    10540.337    518.26631     76.89738    88.794136     81.13265    1399.3135   0.02869789   0.02960604  0.034408439  0.092712369  0.021902604  0.023248998  0.027466395  0.072617998 
  475000   -1795490.8    10512.137    321.17876     76.89738    88.794136     81.13265    1395.5698    0.0299217  0.028407187  0.034293355  0.092622242  0.023010382  0.022453625  0.027117359  0.072581366 
  476000   -1795484.7    10557.231    847.04776     76.89738    88.794136     81.13265    1401.5563  0.029433428  0.028771577  0.034626338  0.092831344  0.022780904  0.022692252  0.027534504  0.073007659 
  477000   -1795537.8    10530.901    274.28389     76.89738    88.794136     81.13265    1398.0608  0.029044088  0.029511289   0.03495803  0.093513408  0.021968088  0.023130952  0.027530922  0.072629961 
  478000     -1795534     10566.09    287.21562     76.89738    88.794136     81.13265    1402.7324  0.028969522  0.029568897  0.033990405  0.092528824   0.02207269  0.023384088   0.02687911  0.072335888 
  479000   -1795496.9    10486.619    469.70574     76.89738    88.794136     81.13265     1392.182  0.029024161  0.029318289  0.034391224  0.092733675  0.021608891  0.023202006  0.027107148  0.071918045 
  480000   -1795517.2    10517.289    712.13516     76.89738    88.794136     81.13265    1396.2537  0.029392911  0.029289604  0.034761587  0.093444101  0.022114724  0.022889551  0.027764063  0.072768338 
  481000   -1795589.5    10603.254    654.07045     76.89738    88.794136     81.13265    1407.6663   0.02918189  0.029775889  0.033838459  0.092796237  0.022108717  0.022896742  0.026967797  0.071973256 
  482000   -1795451.2    10560.088    1315.8055     76.89738    88.794136     81.13265    1401.9356  0.029764373  0.029834889  0.034381908   0.09398117  0.021854397  0.022998026  0.027001302  0.071853724 
  483000     -1795491    10492.613    439.10028     76.89738    88.794136     81.13265    1392.9777  0.028961032  0.030213394   0.03432149  0.093495916  0.021770367  0.023626335  0.027184585  0.072581287 
  484000   -1795568.6    10553.121    564.06925     76.89738    88.794136     81.13265    1401.0107  0.028513468  0.029857199  0.034475989  0.092846656  0.021785656  0.023250294  0.027227359  0.072263309 
  485000   -1795538.5    10581.528    314.97253     76.89738    88.794136     81.13265    1404.7819  0.028276409   0.02986409  0.034050845  0.092191344  0.021388905  0.022924496  0.026979324  0.071292725 
  486000   -1795560.6    10509.636    296.41199     76.89738    88.794136     81.13265    1395.2377  0.029236271  0.029478099  0.034190331    0.0929047  0.022134771  0.023114052  0.027001946  0.072250769 
  487000   -1795531.6    10541.264    592.77751     76.89738    88.794136     81.13265    1399.4366  0.029491541  0.029260731  0.034102722  0.092854995   0.02212883  0.023141932  0.026718218   0.07198898 
  488000   -1795448.6    10474.697    737.68245     76.89738    88.794136     81.13265    1390.5993  0.029180057  0.029261805  0.034068971  0.092510833  0.021912825  0.022895232  0.027092982   0.07190104 
  489000   -1795532.3    10561.535    901.27551     76.89738    88.794136     81.13265    1402.1277  0.028895242  0.029863557   0.03429308  0.093051879  0.021928443  0.023544246  0.027132349  0.072605038 
  490000   -1795492.1    10604.343    453.70208     76.89738    88.794136     81.13265    1407.8108  0.029068998  0.028973481  0.034107027  0.092149506   0.02205011  0.023020827  0.027728895  0.072799832 
  491000   -1795507.4    10493.836    485.09617     76.89738    88.794136     81.13265    1393.1402  0.029180656  0.028581044  0.032711199    0.0904729  0.021509455  0.022631217  0.026006575  0.070147248 
  492000   -1795489.9      10532.4    692.92668     76.89738    88.794136     81.13265    1398.2598  0.028947147  0.029961505  0.034774423  0.093683075  0.021854946  0.024067048  0.027356826  0.073278821 
  493000   -1795474.9    10450.938    695.18348     76.89738    88.794136     81.13265    1387.4451  0.028591037  0.028933386   0.03350163  0.091026054  0.021697108  0.023498954  0.026274366  0.071470428 
  494000   -1795436.3    10470.259    865.97901     76.89738    88.794136     81.13265      1390.01  0.029036861  0.029575203  0.034176472  0.092788535  0.022051537  0.022954855  0.027035927  0.072042319 
  495000   -1795513.5    10515.324    320.66858     76.89738    88.794136     81.13265    1395.9929  0.029208431  0.029226452  0.035194116     0.093629  0.022088897  0.023734173  0.027592549  0.073415618 
  496000   -1795490.7    10521.184    563.98801     76.89738    88.794136     81.13265    1396.7709   0.02928882  0.029255604  0.033813639  0.092358063  0.021921083  0.023371745   0.02676472  0.072057549 
  497000   -1795509.8    10566.488     329.3221     76.89738    88.794136     81.13265    1402.7853  0.028799771   0.02933341  0.034161776  0.092294957  0.021690023  0.023072723  0.027107711  0.071870457 
  498000   -1795491.2    10526.959    316.28413     76.89738    88.794136     81.13265    1397.5375  0.029456281  0.028992385  0.033528365  0.091977032  0.022237127  0.023488485  0.026539686  0.072265299 
  499000   -1795560.7    10562.122    274.78955     76.89738    88.794136     81.13265    1402.2056  0.029736006  0.029776046  0.033983612  0.093495664  0.022559028  0.023794223  0.027173008   0.07352626 
  500000   -1795478.3    10523.602    385.91299     76.89738    88.794136     81.13265    1397.0918  0.029587795  0.029338126  0.034243394  0.093169315  0.022470491  0.023414788  0.026833153  0.072718432 
  501000   -1795576.1    10507.409    368.99316     76.89738    88.794136     81.13265    1394.9421  0.029644837  0.028541994  0.033985082  0.092171913  0.022656657   0.02269125  0.027049845  0.072397751 
  502000   -1795517.2    10601.093    816.08158     76.89738    88.794136     81.13265    1407.3794  0.029889315  0.029472319  0.034432465  0.093794099  0.022453841  0.023609541  0.027544548   0.07360793 
  503000   -1795487.8     10574.62     1124.261     76.89738    88.794136     81.13265    1403.8649  0.029656937  0.029519969  0.034922426  0.094099333  0.022180126  0.023783906  0.027760354  0.073724386 
  504000   -1795532.5    10606.076    948.46487     76.89738    88.794136     81.13265    1408.0409  0.029374984  0.029096346  0.034520786  0.092992117  0.022089351  0.022817444  0.027214341  0.072121136 
  505000   -1795514.4    10541.672    790.40385     76.89738    88.794136     81.13265    1399.4907  0.029277048  0.029041462  0.033538827  0.091857337  0.021957838  0.023255134  0.026206322  0.071419294 
  506000   -1795507.3    10476.414     494.1373     76.89738    88.794136     81.13265    1390.8273  0.030146608  0.029335411  0.034752031   0.09423405  0.022735046   0.02323536  0.027366763   0.07333717 
  507000   -1795529.5    10575.309    509.30694     76.89738    88.794136     81.13265    1403.9563  0.029549526  0.029972731  0.033960554  0.093482811  0.022025926  0.023800256  0.026636982  0.072463164 
  508000   -1795543.1    10577.214    264.75271     76.89738    88.794136     81.13265    1404.2092  0.029714729  0.029290318  0.034192108  0.093197156  0.022160376  0.022800635  0.026849703  0.071810714 
  509000   -1795474.1    10496.358    722.94188     76.89738    88.794136     81.13265     1393.475  0.029609686  0.030676817  0.034604849  0.094891352  0.022447055  0.024019527  0.027948781  0.074415363 
  510000   -1795526.7    10512.679    674.75353     76.89738    88.794136     81.13265    1395.6417  0.029844725  0.030257058  0.033100785  0.093202568  0.022031327  0.023644643  0.025789717  0.071465688 
  511000   -1795483.7    10541.376    708.52862     76.89738    88.794136     81.13265    1399.4515  0.030117934  0.029561444  0.035341229  0.095020607  0.022266761  0.023409903  0.027669849  0.073346513 
  512000   -1795519.4    10591.453    251.48716     76.89738    88.794136     81.13265    1406.0996   0.02983108   0.02983349   0.03452459   0.09418916  0.022435656  0.023742127  0.027041288  0.073219072 
  513000   -1795442.6    10494.721    1155.3487     76.89738    88.794136     81.13265    1393.2577   0.02994944  0.029740222  0.033748871  0.093438533  0.022125609  0.023540442  0.026576332  0.072242384 
  514000   -1795520.6    10513.596     1057.026     76.89738    88.794136     81.13265    1395.7634  0.029185119  0.029052081  0.034756781  0.092993981  0.021604834  0.023138681  0.027596229  0.072339744 
  515000   -1795460.6    10558.005    1105.9339     76.89738    88.794136     81.13265    1401.6591  0.029433611   0.02938897   0.03503676   0.09385934  0.021722804  0.023627901  0.027948253  0.073298958 
  516000   -1795517.3    10497.277    235.00203     76.89738    88.794136     81.13265    1393.5969  0.029826682   0.02898885  0.034239368    0.0930549  0.022077913  0.023069992  0.027185434  0.072333339 
  517000     -1795527    10580.982    407.47339     76.89738    88.794136     81.13265    1404.7095  0.030070552  0.029518591  0.033696887  0.093286031  0.022094781  0.023752762  0.026562039  0.072409582 
  518000     -1795474      10548.6     1099.624     76.89738    88.794136     81.13265    1400.4105  0.030284724   0.02924776  0.035134753  0.094667237  0.022544813  0.023379402  0.027884942  0.073809157 
  519000   -1795502.4    10501.218    744.52878     76.89738    88.794136     81.13265    1394.1202  0.029647652  0.029630071   0.03396739  0.093245114  0.022172562  0.023566187  0.026242564  0.071981312 
  520000     -1795504    10498.811    436.16837     76.89738    88.794136     81.13265    1393.8005  0.029749643  0.029552078  0.034874114  0.094175836  0.022208447  0.023378304  0.027417774  0.073004524 
  521000     -1795493    10489.726    707.25402     76.89738    88.794136     81.13265    1392.5945  0.029589319  0.029399674  0.034529814  0.093518806  0.021961583  0.023488543  0.027909392  0.073359518 
  522000   -1795529.2    10561.295    990.02621     76.89738    88.794136     81.13265    1402.0958  0.029826504  0.029311842  0.033620718  0.092759064  0.022406645  0.023471475  0.027275761   0.07315388 
  523000   -1795526.2    10544.685    404.19009     76.89738    88.794136     81.13265    1399.8907  0.030014086  0.028902263  0.034783752  0.093700101  0.022518792  0.022974934  0.027630295   0.07312402 
  524000     -1795529    10543.372    264.77628     76.89738    88.794136     81.13265    1399.7165  0.029452911  0.029852706  0.034410413   0.09371603   0.02183962  0.023551291  0.027049564  0.072440475 
  525000   -1795524.8    10481.038    374.63871     76.89738    88.794136     81.13265    1391.4411  0.029022994  0.029445727  0.033010501  0.091479223  0.021829101  0.023267961  0.026733153  0.071830215 
  526000   -1795504.2    10525.592    662.39388     76.89738    88.794136     81.13265    1397.3559  0.029203637  0.029737488  0.033978221  0.092919346   0.02250485  0.023358187  0.026615174  0.072478212 
  527000   -1795507.4    10572.331    716.97394     76.89738    88.794136     81.13265     1403.561  0.029373558  0.030714663  0.034398844  0.094487065  0.022111185  0.024732698  0.027480601  0.074324483 
  528000   -1795542.7    10585.196    61.721638     76.89738    88.794136     81.13265    1405.2689   0.02965547  0.029705268   0.03369146  0.093052199  0.022805241  0.023559385  0.026615718  0.072980345 
  529000   -1795551.1    10551.636     346.2913     76.89738    88.794136     81.13265    1400.8135  0.028698705  0.029619199  0.033511318  0.091829222   0.02183206  0.023247663  0.026701201  0.071780924 
  530000   -1795500.2    10501.529    480.80724     76.89738    88.794136     81.13265    1394.1614   0.02835582  0.029943346   0.03524103  0.093540196  0.021352456  0.023313247  0.027227555  0.071893259 
  531000   -1795546.4    10613.798       205.68     76.89738    88.794136     81.13265     1409.066   0.02904145  0.029746236  0.033264017  0.092051703  0.022366822  0.023605454  0.026331676  0.072303952 
  532000   -1795468.2    10530.165    668.04254     76.89738    88.794136     81.13265    1397.9631  0.028868882  0.029943912  0.034514227  0.093327021  0.021771875  0.024008438  0.027500374  0.073280687 
  533000   -1795532.1    10548.949     509.7915     76.89738    88.794136     81.13265    1400.4568  0.029648189  0.029500822  0.035008591  0.094157602  0.022795409  0.023457625  0.027832977   0.07408601 
  534000   -1795501.6    10560.004    937.08433     76.89738    88.794136     81.13265    1401.9244  0.028849463  0.029848497  0.034337244  0.093035204  0.022492505  0.023470592  0.026783421  0.072746517 
  535000     -1795546    10505.204    497.16377     76.89738    88.794136     81.13265    1394.6493  0.029289803  0.029660711  0.034513684  0.093464198  0.021795047  0.023247515  0.027331432  0.072373993 
  536000   -1795563.3    10563.656    130.39784     76.89738    88.794136     81.13265    1402.4093  0.029772653  0.029371108  0.034738607  0.093882368  0.022002243  0.023403191  0.027050363  0.072455797 
  537000     -1795521    10593.641    449.86495     76.89738    88.794136     81.13265      1406.39  0.029404744  0.029430676  0.034474976  0.093310396    0.0221995  0.023688982  0.026804777   0.07269326 
  538000   -1795539.3    10548.408    831.05516     76.89738    88.794136     81.13265     1400.385  0.029931643  0.028839553  0.034208156  0.092979351  0.022715419  0.023313043  0.027307199  0.073335661 
  539000   -1795474.7    10564.571    661.03048     76.89738    88.794136     81.13265    1402.5308  0.029835104  0.029347293  0.034778137  0.093960535  0.022267837  0.023735605  0.027110802  0.073114243 
  540000   -1795522.9    10538.425    449.39372     76.89738    88.794136     81.13265    1399.0597  0.029405256  0.029049534  0.034838353  0.093293143  0.022264749  0.023351103  0.027707542  0.073323394 
  541000   -1795555.4    10546.269    321.66582     76.89738    88.794136     81.13265     1400.101  0.029300682  0.028748632  0.034538664  0.092587978  0.022223262  0.023623849  0.027347836  0.073194948 
  542000   -1795463.2    10534.215    535.68386     76.89738    88.794136     81.13265    1398.5008  0.029654568  0.029572762  0.034305592  0.093532922  0.022357205  0.024107926  0.027077568  0.073542699 
  543000   -1795435.8     10537.58    1196.6079     76.89738    88.794136     81.13265    1398.9475  0.029836189  0.029185309  0.034482192  0.093503689  0.022680007  0.023862923  0.027321817  0.073864746 
  544000   -1795473.9    10593.271    1261.6392     76.89738    88.794136     81.13265    1406.3409  0.029509684  0.028471659  0.034636982  0.092618326  0.022348218   0.02299198  0.027460893  0.072801091 
  545000   -1795618.2    10541.583    69.020847     76.89738    88.794136     81.13265    1399.4789  0.029309592  0.028304883  0.034450915   0.09206539  0.022567562  0.023339689  0.027506497  0.073413748 
  546000   -1795531.8    10546.488    748.85532     76.89738    88.794136     81.13265    1400.1301    0.0289092  0.028718922  0.034614328  0.092242451  0.022416415  0.023776313  0.027386067  0.073578795 
  547000   -1795487.7    10594.807    714.22071     76.89738    88.794136     81.13265    1406.5448  0.028811645  0.028784986  0.034612302  0.092208933  0.022416608  0.023377084  0.027858582  0.073652274 
  548000   -1795491.9    10557.887    784.53357     76.89738    88.794136     81.13265    1401.6434    0.0288928  0.029156835  0.033920024   0.09196966  0.022163279  0.023954532  0.026521903  0.072639714 
  549000   -1795497.3    10512.277    470.65002     76.89738    88.794136     81.13265    1395.5883   0.02971208  0.028995076  0.034733594   0.09344075   0.02295766   0.02404718  0.027667381  0.074672221 
  550000   -1795445.3    10576.769    1243.1391     76.89738    88.794136     81.13265    1404.1502  0.029415194  0.027954546  0.034601137  0.091970877  0.022110914  0.023254464  0.026878991  0.072244369 
  551000   -1795575.9    10515.566   -32.874188     76.89738    88.794136     81.13265     1396.025  0.029760331  0.028838865  0.034171727  0.092770923  0.022300003  0.023599961  0.026753464  0.072653428 
  552000   -1795514.3    10592.344    417.46682     76.89738    88.794136     81.13265    1406.2179  0.030371401    0.0287524  0.035016291  0.094140092  0.022982127  0.023906116  0.027691453  0.074579696 
  553000   -1795531.5    10590.759    969.75969     76.89738    88.794136     81.13265    1406.0074  0.029464872  0.028661369  0.034180839  0.092307081  0.022423046  0.023515771  0.026639773   0.07257859 
  554000   -1795466.4    10594.379    1440.8961     76.89738    88.794136     81.13265     1406.488  0.029505934  0.028981565  0.035381731   0.09386923  0.022480092  0.023674402   0.02774289  0.073897384 
  555000   -1795582.4    10511.084    159.67542     76.89738    88.794136     81.13265    1395.4299  0.029680202  0.028596657  0.033405232  0.091682091  0.022740674  0.023394365  0.026412273  0.072547312 
  556000   -1795444.6    10535.995    835.69777     76.89738    88.794136     81.13265     1398.737  0.029464378  0.029672238  0.035240514   0.09437713  0.023237548  0.024205669  0.028552675  0.075995892 
  557000   -1795538.2    10514.786    423.31546     76.89738    88.794136     81.13265    1395.9214  0.029362367  0.029335859  0.034834359  0.093532585  0.022160957  0.024281406  0.027655805  0.074098168 
  558000     -1795530    10585.321    343.89434     76.89738    88.794136     81.13265    1405.2855  0.029167703  0.028816961  0.034603041  0.092587705   0.02212309  0.023803373  0.027598539  0.073525002 
  559000   -1795507.5    10583.733    739.72337     76.89738    88.794136     81.13265    1405.0747  0.029494948  0.029658721  0.035420171   0.09457384  0.022620334  0.024120441  0.028572739  0.075313514 
  560000   -1795514.9    10513.438    150.39306     76.89738    88.794136     81.13265    1395.7425  0.029271701  0.030224509  0.033878103  0.093374313  0.021857319  0.024127214   0.02671792  0.072702453 
  561000   -1795459.2    10553.857      966.365     76.89738    88.794136     81.13265    1401.1084  0.029561749  0.029615786  0.035654833  0.094832368  0.023203697   0.02438052  0.028329216  0.075913433 
  562000   -1795510.3    10589.651    478.00313     76.89738    88.794136     81.13265    1405.8604  0.029200725  0.029423765  0.034638505  0.093262995  0.022863329  0.024219657  0.027465576  0.074548562 
  563000     -1795488    10557.102    679.43562     76.89738    88.794136     81.13265    1401.5392  0.029132484  0.029860935  0.035330972  0.094324391  0.022262644  0.023721094  0.028252764  0.074236503 
  564000   -1795480.8    10523.233    252.76785     76.89738    88.794136     81.13265    1397.0428  0.029216262  0.030038274  0.034815871  0.094070407   0.02256193   0.02419796  0.027084098  0.073843988 
  565000   -1795459.3    10525.232     661.9714     76.89738    88.794136     81.13265    1397.3082  0.029647383  0.030212424  0.034295983  0.094155789  0.022579446  0.024446465  0.027839593  0.074865504 
  566000   -1795445.7    10451.475    1047.8817     76.89738    88.794136     81.13265    1387.5163  0.030294655  0.030174494  0.036560286  0.097029435  0.023441662  0.024023701   0.02954161  0.077006973 
  567000   -1795481.5    10569.374    728.76504     76.89738    88.794136     81.13265    1403.1685  0.029702382  0.029924889   0.03439271  0.094019981  0.022404294  0.023994386  0.027385544  0.073784223 
  568000   -1795486.4    10551.087    475.97407     76.89738    88.794136     81.13265    1400.7407  0.029365403  0.029512516  0.034768196  0.093646114   0.02267157  0.023395729   0.02767411  0.073741409 
  569000   -1795520.7    10546.098    471.47128     76.89738    88.794136     81.13265    1400.0784  0.029587783  0.029615838  0.035498458  0.094702079  0.022494672  0.024289574  0.028781425  0.075565671 
  570000   -1795464.8    10508.539     1221.677     76.89738    88.794136     81.13265    1395.0921  0.029595869  0.029193389  0.034548485  0.093337743  0.022856847  0.024324471  0.027782118  0.074963436 
  571000   -1795468.3    10597.383    978.72385     76.89738    88.794136     81.13265    1406.8868   0.03007551  0.030000802  0.035194658   0.09527097  0.023108065  0.023933108  0.028425283  0.075466455 
  572000     -1795561     10579.03    789.82808     76.89738    88.794136     81.13265    1404.4503  0.029089256  0.030340982  0.035003918  0.094434156  0.022495001  0.024989816  0.027522883    0.0750077 
  573000   -1795555.2    10570.647      188.944     76.89738    88.794136     81.13265    1403.3374  0.029129735  0.029502692  0.034890479  0.093522905  0.022239069  0.024335312  0.027849669  0.074424051 
  574000   -1795501.2     10541.78     474.2663     76.89738    88.794136     81.13265    1399.5051  0.029087962  0.029521363  0.033867771  0.092477097   0.02242411  0.023902175   0.02695824  0.073284526 
  575000   -1795509.8     10515.08    479.32092     76.89738    88.794136     81.13265    1395.9605  0.029423926   0.02984144  0.035184485  0.094449851  0.022424865  0.024046918  0.027821324  0.074293106 
  576000   -1795489.8    10530.769    383.67509     76.89738    88.794136     81.13265    1398.0433   0.02955214  0.030494256  0.035018835  0.095065231  0.022992958   0.02471404  0.028373818  0.076080815 
  577000   -1795522.7    10506.166    391.35013     76.89738    88.794136     81.13265    1394.7771  0.029575014  0.030129641   0.03448538  0.094190034  0.022244019  0.024021044  0.027448735  0.073713798 
  578000   -1795514.2    10581.984    934.76241     76.89738    88.794136     81.13265    1404.8424  0.029630666  0.029559207  0.035431385  0.094621258  0.022631324   0.02386284  0.028059531  0.074553694 
  579000     -1795528    10529.636    793.08005     76.89738    88.794136     81.13265    1397.8929  0.029563112  0.029427036  0.034180127  0.093170275   0.02226267  0.024033906  0.027579941  0.073876518 
  580000   -1795542.9    10566.129    300.31947     76.89738    88.794136     81.13265    1402.7376  0.029817121  0.029778672  0.034737043  0.094332836  0.022287016  0.023437185  0.027233124  0.072957326 
  581000   -1795533.1    10595.057    738.62161     76.89738    88.794136     81.13265     1406.578  0.029666855  0.029986767  0.035087551  0.094741174  0.022242477  0.023869551  0.027875464  0.073987491 
  582000   -1795505.4    10547.304    555.83261     76.89738    88.794136     81.13265    1400.2384  0.029737801  0.030158508  0.035387575  0.095283884  0.022174814  0.024423408  0.028259758   0.07485798 
  583000   -1795529.1    10522.264    241.24463     76.89738    88.794136     81.13265    1396.9142  0.029610696  0.029829354  0.034591086  0.094031135  0.022101879  0.023992176  0.027363077  0.073457132 
  584000   -1795453.8    10516.086    761.14793     76.89738    88.794136     81.13265     1396.094  0.029592493  0.029226323  0.033693597  0.092512413  0.021676305  0.023369594  0.026324191   0.07137009 
  585000   -1795509.8     10567.29    988.54411     76.89738    88.794136     81.13265    1402.8917  0.029636387  0.029645082  0.035240662   0.09452213  0.022214862  0.024054953  0.028433954  0.074703769 
  586000   -1795470.1    10542.359     1110.088     76.89738    88.794136     81.13265    1399.5819  0.030198559  0.029298385  0.034520148  0.094017092  0.023119413  0.023966749  0.027193564  0.074279726 
  587000   -1795535.2    10507.283    228.95402     76.89738    88.794136     81.13265    1394.9253  0.030819698  0.029182339   0.03495655  0.094958587  0.022984721  0.024100213  0.027602321  0.074687255 
  588000   -1795478.9    10583.713     760.2948     76.89738    88.794136     81.13265     1405.072  0.030074344  0.028972663  0.035836138  0.094883145  0.022849627  0.024068962  0.028493538  0.075412127 
  589000     -1795509    10543.477    1028.8689     76.89738    88.794136     81.13265    1399.7304  0.029769426  0.028543705  0.034495248  0.092808378  0.022344385  0.023356382  0.027206697  0.072907464 
  590000   -1795511.7    10508.221    588.84364     76.89738    88.794136     81.13265    1395.0498  0.029347491  0.028020182  0.034938497   0.09230617  0.022241417  0.023360157  0.027775293  0.073376867 
  591000   -1795507.1    10544.979    532.93431     76.89738    88.794136     81.13265    1399.9297  0.029325578  0.029566023   0.03457063  0.093462231  0.022218192  0.025105132  0.027231011  0.074554335 
  592000   -1795497.8    10536.421    448.01637     76.89738    88.794136     81.13265    1398.7937  0.029917481  0.028459811  0.034671835  0.093049126  0.022501333  0.023674379  0.027668097  0.073843809 
  593000   -1795554.5    10559.903    755.79452     76.89738    88.794136     81.13265     1401.911  0.029461901   0.02953781  0.034394646  0.093394358  0.021894344  0.024251398  0.027071476  0.073217218 
  594000   -1795528.2    10484.648    253.54365     76.89738    88.794136     81.13265    1391.9204  0.029925923  0.029369371  0.034697266  0.093992561  0.022072799  0.024263816  0.027559645  0.073896261 
  595000   -1795485.2    10526.625    445.37984     76.89738    88.794136     81.13265    1397.4932  0.030050076  0.028904416  0.034937796  0.093892288  0.022832533   0.02413391  0.028554077   0.07552052 
  596000   -1795547.1    10565.172    404.86959     76.89738    88.794136     81.13265    1402.6106  0.029785581  0.029134124  0.033931105  0.092850811  0.022595364  0.023826453  0.027212538  0.073634355 
  597000   -1795535.9      10512.1    274.58231     76.89738    88.794136     81.13265    1395.5649  0.030103876   0.02909007  0.035297162  0.094491108  0.022797368  0.023845933  0.028252008  0.074895309 
  598000   -1795572.4    10635.361      476.116     76.89738    88.794136     81.13265    1411.9288  0.029315457  0.028447475  0.033784006  0.091546938  0.021953642  0.023525183  0.026888462  0.072367288 
  599000   -1795529.2    10531.344    26.210039     76.89738    88.794136     81.13265    1398.1196  0.029967456  0.028614593   0.03440768  0.092989728  0.022334565    0.0232105  0.026909103  0.072454168 
  600000   -1795471.1    10533.728    536.86249     76.89738    88.794136     81.13265    1398.4361  0.030845601  0.029696982  0.034324333  0.094866916  0.023273202  0.024330651  0.027878402  0.075482254 
  601000   -1795475.8    10637.136    1118.3927     76.89738    88.794136     81.13265    1412.1643  0.030304025  0.028733492  0.034011916  0.093049434  0.022586318  0.023037833   0.02673772  0.072361871 
  602000   -1795488.3    10434.974    385.42701     76.89738    88.794136     81.13265    1385.3257   0.03087059  0.029236265  0.034680195  0.094787051  0.022893002  0.023715128  0.027786877  0.074395007 
  603000   -1795463.8    10591.303    1015.8554     76.89738    88.794136     81.13265    1406.0796   0.03077398  0.028644872  0.034265867   0.09368472  0.022788305   0.02304435  0.026894506  0.072727161 
  604000   -1795481.6    10591.732    678.13658     76.89738    88.794136     81.13265    1406.1367  0.030863014  0.028949451  0.035269829  0.095082295    0.0228361  0.023275917  0.027990093  0.074102109 
  605000   -1795517.8     10617.69    792.68324     76.89738    88.794136     81.13265    1409.5828  0.030226229  0.028926643   0.03398845  0.093141323  0.022976332  0.023837877  0.026793603  0.073607812 
  606000   -1795419.9    10528.306    885.80016     76.89738    88.794136     81.13265    1397.7164   0.03030359  0.029380651  0.034512389   0.09419663  0.022380625  0.024368378  0.027559568  0.074308571 
  607000   -1795481.1    10534.996    140.27287     76.89738    88.794136     81.13265    1398.6044  0.030846938  0.028966034  0.033979395  0.093792367  0.022932482  0.024140977  0.027422264  0.074495723 
  608000   -1795484.3    10542.472    686.62913     76.89738    88.794136     81.13265    1399.5969   0.03008405  0.028747827  0.034192767  0.093024644  0.022012199  0.024373607  0.027155518  0.073541325 
  609000   -1795383.4    10536.443    1682.4681     76.89738    88.794136     81.13265    1398.7966   0.03045428  0.029287802  0.034640158   0.09438224  0.022499103  0.024165733  0.027172609  0.073837446 
  610000     -1795582    10554.154    294.38569     76.89738    88.794136     81.13265    1401.1478   0.03028253    0.0289923  0.034299259   0.09357409     0.022017  0.023806224  0.027085858  0.072909082 
  611000   -1795533.2    10482.788    166.63813     76.89738    88.794136     81.13265    1391.6734   0.03002461  0.029169089   0.03480291   0.09399661  0.022142938  0.023906717  0.027694887  0.073744541 
  612000   -1795551.5    10549.689    290.57789     76.89738    88.794136     81.13265     1400.555  0.029968071  0.029123906    0.0345934  0.093685376  0.022571429  0.023916015  0.027660054  0.074147499 
  613000   -1795462.4    10574.171    1064.9353     76.89738    88.794136     81.13265    1403.8053  0.030268828  0.029472976  0.034774888  0.094516692  0.022414403  0.024472941  0.027871344  0.074758687 
  614000   -1795547.7    10509.862     372.8054     76.89738    88.794136     81.13265    1395.2677  0.030306904  0.028617122  0.034595566  0.093519592  0.022449425  0.023670741  0.027747162  0.073867329 
  615000   -1795500.3    10531.045    601.35893     76.89738    88.794136     81.13265    1398.0799  0.029660263  0.029595499  0.034310407  0.093566169  0.022280431  0.024307532  0.027167665  0.073755628 
  616000     -1795514    10505.702    546.16846     76.89738    88.794136     81.13265    1394.7155  0.029756968  0.029950185  0.034435865  0.094143017  0.021887721  0.024284675  0.027259416  0.073431812 
  617000   -1795548.8    10579.771     373.8301     76.89738    88.794136     81.13265    1404.5487  0.029518989  0.029236998  0.034336762  0.093092749  0.022167044  0.024176155  0.027019909  0.073363108 
  618000   -1795504.3    10562.265    702.06297     76.89738    88.794136     81.13265    1402.2246  0.030125624  0.029201039  0.034775873  0.094102536   0.02257653   0.02442388   0.02786571  0.074866121 
  619000   -1795496.7    10510.678     680.5898     76.89738    88.794136     81.13265     1395.376   0.03077494  0.028458035  0.034578183  0.093811158  0.023197213  0.023525421  0.027293878  0.074016512 
  620000   -1795571.1    10592.466    345.72151     76.89738    88.794136     81.13265     1406.234  0.030117799  0.028617144  0.033843544  0.092578486   0.02228029  0.023755177  0.026926953  0.072962419 
  621000   -1795429.6    10511.193    1133.1064     76.89738    88.794136     81.13265    1395.4444  0.030863746  0.028829237  0.035326124  0.095019107  0.022129712  0.023660742  0.027833073  0.073623527 
  622000   -1795481.1    10553.926    828.09539     76.89738    88.794136     81.13265    1401.1175  0.029753644  0.029221797    0.0341133  0.093088741  0.022132106  0.023341179   0.02660186  0.072075145 
  623000   -1795493.7    10543.706    640.14983     76.89738    88.794136     81.13265    1399.7608  0.029848625  0.029699362  0.034975708  0.094523695  0.022013682  0.023915654  0.027445881  0.073375217 
  624000   -1795490.3    10552.181    609.64398     76.89738    88.794136     81.13265    1400.8859  0.030059226  0.028663391  0.034629713   0.09335233  0.022224525  0.023773056  0.027577577  0.073575158 
  625000     -1795513    10513.561    394.19648     76.89738    88.794136     81.13265    1395.7587   0.03029787  0.028987854  0.034183222  0.093468946  0.021836582  0.023887182  0.026959344  0.072683107 
  626000   -1795454.4      10575.2    1243.1276     76.89738    88.794136     81.13265    1403.9419  0.030277298  0.028834945  0.035151866  0.094264108  0.022531367  0.023623644  0.027795722  0.073950733 
  627000     -1795519    10489.247    624.08536     76.89738    88.794136     81.13265     1392.531    0.0297291   0.02905754  0.034212989  0.092999629  0.021998009  0.023845939  0.027062714  0.072906662 
  628000   -1795467.4    10484.094    547.67272     76.89738    88.794136     81.13265    1391.8468  0.029972865  0.029489381  0.034320755  0.093783001  0.022196543  0.023810504  0.027654261  0.073661308 
  629000   -1795475.9    10511.828    745.51743     76.89738    88.794136     81.13265    1395.5287    0.0306488  0.029073411  0.034181242  0.093903453  0.022701258  0.023650333  0.026911191  0.073262783 
  630000   -1795517.4    10459.871    133.76228     76.89738    88.794136     81.13265     1388.631  0.030009947  0.028978048  0.035346525   0.09433452  0.022605105  0.023846509  0.028125208  0.074576822 
  631000   -1795488.2    10531.561    707.52261     76.89738    88.794136     81.13265    1398.1484  0.029867739  0.029392458  0.033665859  0.092926056  0.022349791  0.023631693   0.02681674  0.072798224 
  632000   -1795485.9    10593.499    534.38026     76.89738    88.794136     81.13265    1406.3712  0.029181475  0.028787835  0.034855736  0.092825046  0.021620558  0.023801922  0.027252152  0.072674631 
  633000   -1795495.9    10534.238    626.95247     76.89738    88.794136     81.13265    1398.5039  0.029711801  0.028980886  0.034847622  0.093540309  0.022314627  0.023760162  0.027856948  0.073931737 
  634000   -1795511.2    10511.342    680.74954     76.89738    88.794136     81.13265    1395.4642  0.029944565  0.028687584  0.033720457  0.092352606  0.022772313  0.024133139  0.026499941  0.073405394 
  635000   -1795548.4    10539.602    408.27166     76.89738    88.794136     81.13265    1399.2159  0.029044552  0.028688824  0.036126151  0.093859527  0.021982992  0.023661307  0.029025276  0.074669575 
  636000   -1795577.4    10527.813     199.4092     76.89738    88.794136     81.13265    1397.6508  0.029269797  0.028617819   0.03380867  0.091696286  0.022345605  0.024364046  0.026693643  0.073403294 
  637000   -1795543.2    10540.554    653.94112     76.89738    88.794136     81.13265    1399.3423  0.028994589  0.028627738  0.034221076  0.091843402  0.022208997  0.024046696  0.026735153  0.072990846 
  638000   -1795447.3    10502.795    577.37826     76.89738    88.794136     81.13265    1394.3296   0.02919747  0.028463487  0.034708751  0.092369707  0.022006586  0.023683356  0.027497811  0.073187752 
  639000   -1795448.7     10637.26    857.56174     76.89738    88.794136     81.13265    1412.1808  0.029393241  0.029051284  0.033883711  0.092328236  0.022342144  0.024312639   0.02687799  0.073532773 
  640000     -1795507    10552.438    468.44547     76.89738    88.794136     81.13265    1400.9201  0.029290922  0.028525034  0.034689561  0.092505517  0.022134471  0.023755358   0.02752268   0.07341251 
  641000   -1795473.8    10526.012    1136.5857     76.89738    88.794136     81.13265    1397.4117  0.029815963  0.028814149  0.034635862  0.093265974  0.022594918  0.023559226  0.027395567  0.073549712 
  642000   -1795540.5    10539.935    608.73864     76.89738    88.794136     81.13265    1399.2601  0.029490593  0.028753502  0.034736325   0.09298042  0.022046907  0.024202814  0.027775102  0.074024823 
  643000   -1795542.2     10470.37    210.64015     76.89738    88.794136     81.13265    1390.0248  0.029431064  0.028683999   0.03436084  0.092475902  0.022488065  0.023930042  0.027521515  0.073939622 
  644000   -1795541.9    10504.992    227.64839     76.89738    88.794136     81.13265    1394.6212  0.029578726   0.02950208  0.034241443  0.093322249  0.022414732  0.024201786  0.026583063  0.073199581 
  645000     -1795530    10496.577    211.29322     76.89738    88.794136     81.13265    1393.5041  0.029567852    0.0292526  0.035072684  0.093893137  0.022472115  0.024396764  0.027992386  0.074861265 
  646000   -1795498.2    10499.413    739.84203     76.89738    88.794136     81.13265    1393.8806  0.030530897  0.029200793  0.034685156  0.094416845  0.022696877  0.024116386  0.027626372  0.074439635 
  647000   -1795503.2    10533.838    190.44058     76.89738    88.794136     81.13265    1398.4507  0.030561341  0.028906927  0.035000037  0.094468305  0.022449777   0.02432086  0.027114011  0.073884648 
  648000   -1795551.9    10575.486    741.25879     76.89738    88.794136     81.13265    1403.9799  0.030616082  0.029127671  0.034192702  0.093936455  0.022252998  0.024356913  0.027200361  0.073810272 
  649000   -1795510.2    10530.988    700.96783     76.89738    88.794136     81.13265    1398.0724  0.030049504  0.029479096  0.033960525  0.093489126  0.022020953  0.024363988  0.026811462  0.073196403 
  650000   -1795445.5    10611.819    1132.4598     76.89738    88.794136     81.13265    1408.8034  0.030248521  0.029511016  0.034424734  0.094184271  0.022729441   0.02390709  0.027350412  0.073986943 
  651000   -1795487.4    10472.405    602.09149     76.89738    88.794136     81.13265     1390.295  0.029485217  0.028913893  0.033542235  0.091941344  0.021808671  0.023667426  0.026647362  0.072123459 
  652000   -1795492.6    10547.903    603.27411     76.89738    88.794136     81.13265    1400.3179   0.03002099  0.029323846  0.035484122  0.094828958  0.022691494  0.024060594  0.028243783  0.074995871 
  653000     -1795513    10530.565     658.8565     76.89738    88.794136     81.13265    1398.0163  0.029964513  0.029628124  0.033866455  0.093459091  0.022553914   0.02425736  0.026932081  0.073743354 
  654000   -1795458.9    10577.939    736.88073     76.89738    88.794136     81.13265    1404.3055   0.02981064  0.030065971  0.034268813  0.094145424  0.021729541  0.023844859  0.027153553  0.072727953 
  655000   -1795467.5    10570.964     842.9475     76.89738    88.794136     81.13265    1403.3795  0.029584842  0.029409356  0.035145567  0.094139766  0.021692907  0.023913132  0.027990527  0.073596567 
  656000   -1795484.3    10520.585    573.39364     76.89738    88.794136     81.13265    1396.6913  0.030215373  0.029146156  0.033237102  0.092598631  0.022255828  0.023860053  0.026622914  0.072738795 
  657000   -1795511.7    10538.338    647.03046     76.89738    88.794136     81.13265    1399.0481  0.030696401  0.028798081  0.034107445  0.093601927  0.022844594  0.023358979  0.027244486  0.073448059 
  658000   -1795575.4     10508.01    59.183316     76.89738    88.794136     81.13265    1395.0218  0.030285958  0.028621182  0.034559493  0.093466633  0.022653094  0.023947859  0.027215209  0.073816162 
  659000   -1795527.4    10552.469    273.24411     76.89738    88.794136     81.13265    1400.9241   0.03051124  0.029708645  0.034758655  0.094978541  0.022637273  0.024232381  0.027294752  0.074164405 
  660000   -1795498.6    10571.516    556.54591     76.89738    88.794136     81.13265    1403.4528  0.029869702  0.029367378  0.035500307  0.094737388  0.022041879  0.024108916  0.027632652  0.073783448 
  661000   -1795567.6    10547.225    353.51418     76.89738    88.794136     81.13265     1400.228  0.029699686  0.029572394  0.033786686  0.093058766  0.022571013  0.023742835  0.026925226  0.073239074 
  662000   -1795459.4    10534.315    917.57308     76.89738    88.794136     81.13265     1398.514  0.029852287  0.029859206  0.035042123  0.094753617  0.022672743  0.023804489  0.027785228  0.074262459 
  663000   -1795492.4     10571.96    778.01338     76.89738    88.794136     81.13265    1403.5117  0.030152936  0.029778678  0.033163041  0.093094655  0.022950594  0.023946282  0.026208035   0.07310491 
  664000   -1795543.8    10557.286    420.16168     76.89738    88.794136     81.13265    1401.5636  0.029745358  0.029614979  0.034125001  0.093485337   0.02263292  0.023927734  0.027263803  0.073824458 
  665000   -1795552.1    10547.299    548.76585     76.89738    88.794136     81.13265    1400.2377  0.029396448  0.030149697  0.034625248  0.094171393   0.02196011  0.023720584  0.027097393  0.072778087 
  666000   -1795537.9    10535.015     629.7367     76.89738    88.794136     81.13265    1398.6069  0.029428631  0.030066409   0.03342153   0.09291657  0.021888779  0.024037368  0.026535851  0.072461998 
  667000   -1795552.4    10552.675    606.75952     76.89738    88.794136     81.13265    1400.9515  0.029623581  0.029453651    0.0347768  0.093854032  0.022634044   0.02315528  0.027631899  0.073421222 
  668000   -1795529.1    10569.693    407.48872     76.89738    88.794136     81.13265    1403.2107  0.029789141  0.029383558  0.033897838  0.093070537  0.022541587  0.023512264  0.026831358  0.072885209 
  669000   -1795582.2    10576.046    281.00402     76.89738    88.794136     81.13265    1404.0542    0.0295671   0.02991092  0.034577778  0.094055799  0.022498466  0.024511523  0.027722143  0.074732133 
  670000   -1795498.3    10501.246    511.94004     76.89738    88.794136     81.13265    1394.1239  0.029679229  0.029611188  0.034615399  0.093905816    0.0223635  0.023293163   0.02729007  0.072946732 
  671000   -1795589.7    10547.142     96.40273     76.89738    88.794136     81.13265     1400.217   0.02858673  0.030430253  0.034735075  0.093752059  0.021828675  0.023669179  0.027120962  0.072618816 
  672000   -1795488.6     10615.39    885.74266     76.89738    88.794136     81.13265    1409.2774  0.028844062  0.030214045  0.034617068  0.093675175  0.021881701  0.024317298  0.027725205  0.073924204 
  673000   -1795494.1     10582.26     666.8746     76.89738    88.794136     81.13265    1404.8791  0.029437811  0.030233116  0.034225486  0.093896413  0.022407549  0.023818608  0.026953345  0.073179502 
  674000   -1795478.3    10552.316    908.77854     76.89738    88.794136     81.13265    1400.9038  0.029540278  0.029614034  0.035400299   0.09455461  0.022475112   0.02386704  0.027734267  0.074076419 
  675000   -1795510.2    10529.263     506.8648     76.89738    88.794136     81.13265    1397.8433  0.029886146  0.029185077  0.033967709  0.093038933  0.022879232  0.023796636  0.026700347  0.073376215 
  676000   -1795523.9    10525.595    630.70535     76.89738    88.794136     81.13265    1397.3565  0.029158256  0.030685813  0.034588204  0.094432273  0.021699121  0.024967472  0.027786816  0.074453409 
  677000   -1795449.9    10510.867    725.59237     76.89738    88.794136     81.13265    1395.4011  0.029432518  0.030262379   0.03487311  0.094568007  0.022033472  0.023835612  0.027918864  0.073787948 
  678000   -1795473.1    10572.288     629.3485     76.89738    88.794136     81.13265    1403.5553  0.030413246  0.029807379  0.033969224   0.09418985   0.02256547  0.023526746  0.026660026  0.072752242 
  679000   -1795495.9    10569.488    465.21423     76.89738    88.794136     81.13265    1403.1835  0.029969684  0.030255763  0.035181552  0.095406998  0.022322509  0.024486846  0.027887686  0.074697042 
  680000   -1795503.4     10577.41      603.457     76.89738    88.794136     81.13265    1404.2353  0.030041694  0.030195341  0.034871338  0.095108373  0.022090567  0.024088982  0.027163499  0.073343047 
  681000   -1795540.2    10541.168    95.714755     76.89738    88.794136     81.13265    1399.4239  0.030291628   0.02994597  0.034441014  0.094678612  0.022444919  0.024057611  0.027451809   0.07395434 
  682000   -1795486.7    10631.516    1481.7934     76.89738    88.794136     81.13265    1411.4183  0.030371699  0.029694826   0.03502557  0.095092095  0.022244983  0.023639701  0.027584778  0.073469462 
  683000   -1795508.6    10567.195    833.09336     76.89738    88.794136     81.13265    1402.8792  0.029738278  0.030460693  0.034653735  0.094852706  0.022220076  0.024030343  0.027359747  0.073610166 
  684000   -1795529.8    10491.591    698.50487     76.89738    88.794136     81.13265    1392.8421  0.029962737  0.029998841  0.034496172   0.09445775  0.022447463  0.023267517  0.027103854  0.072818834 
  685000   -1795529.3    10569.637    850.12982     76.89738    88.794136     81.13265    1403.2034  0.030516504   0.02996082  0.034362103  0.094839428  0.022825816  0.023212625  0.027485629   0.07352407 
  686000   -1795525.7    10530.306    604.00508     76.89738    88.794136     81.13265    1397.9818  0.029520502  0.030584432   0.03455379  0.094658724  0.022063267   0.02410915  0.027294513   0.07346693 
  687000     -1795541    10542.574    155.17988     76.89738    88.794136     81.13265    1399.6105  0.029630452  0.030094953   0.03382061  0.093546015  0.021766274  0.023699973   0.02729365  0.072759897 
  688000   -1795532.1    10547.598    684.58787     76.89738    88.794136     81.13265    1400.2775  0.030001454  0.030114978  0.035545267    0.0956617  0.022650486   0.02405324  0.028287315  0.074991041 
  689000   -1795508.3    10506.743    832.81673     76.89738    88.794136     81.13265    1394.8536  0.029864117  0.029636363  0.034553405  0.094053885  0.022177387   0.02374162   0.02741531  0.073334317 
  690000   -1795524.5    10591.963    665.85793     76.89738    88.794136     81.13265    1406.1673  0.029828356  0.029634852  0.034569664  0.094032872  0.022110045  0.023513142  0.027705778  0.073328964 
  691000   -1795445.6    10557.883    1079.2296     76.89738    88.794136     81.13265    1401.6428  0.030227066   0.02953547  0.034811603  0.094574139  0.021950866  0.024096052  0.027750271  0.073797189 
  692000   -1795464.2    10479.404    606.30047     76.89738    88.794136     81.13265    1391.2242  0.029843535  0.030068764   0.03467069  0.094582989  0.022001546  0.023812697  0.026700956  0.072515198 
  693000   -1795418.8    10530.446    772.17051     76.89738    88.794136     81.13265    1398.0004  0.030101562  0.029984381   0.03449944  0.094585382  0.022474226  0.023913064  0.027190336  0.073577626 
  694000     -1795531    10502.508    571.92616     76.89738    88.794136     81.13265    1394.2915  0.029962275  0.029994806  0.035344128  0.095301209  0.021659265  0.024153296  0.027926931  0.073739492 
  695000   -1795506.1    10486.357    313.99906     76.89738    88.794136     81.13265    1392.1472  0.029981807  0.030205727   0.03419821  0.094385744  0.022001638   0.02379404  0.027067933   0.07286361 
  696000   -1795492.7    10524.447    666.57006     76.89738    88.794136     81.13265     1397.204  0.030161114  0.030012616  0.034048769  0.094222499  0.021874626  0.023791443  0.027491824  0.073157893 
  697000   -1795557.1    10558.675     263.6308     76.89738    88.794136     81.13265     1401.748  0.030059827  0.029765005   0.03424516  0.094069992  0.021788914  0.023646022  0.026902083   0.07233702 
  698000   -1795463.1    10592.857    655.19324     76.89738    88.794136     81.13265    1406.2859  0.030496036  0.029564966  0.034665433  0.094726435  0.022385876   0.02372365  0.026839991  0.072949517 
  699000   -1795478.7    10498.491    303.02621     76.89738    88.794136     81.13265    1393.7581  0.030420605  0.030295959  0.034339951  0.095056514  0.022169898  0.024394337  0.027184409  0.073748644 
  700000   -1795562.6    10538.801    549.15761     76.89738    88.794136     81.13265    1399.1096   0.02983391  0.030498034  0.035207532  0.095539477  0.021389904  0.024399319  0.027523884  0.073313107 
  701000   -1795528.3    10542.716    668.58479     76.89738    88.794136     81.13265    1399.6294  0.030475954  0.030135371  0.034021685  0.094633011  0.022737546   0.02346053  0.027304739  0.073502814 
  702000   -1795564.9    10531.266    798.41958     76.89738    88.794136     81.13265    1398.1092  0.030573989  0.029951006  0.034461299  0.094986294  0.022196686  0.023436582  0.027174058  0.072807326 
  703000   -1795482.6    10568.283    820.71933     76.89738    88.794136     81.13265    1403.0236  0.030055073  0.030175607  0.035001913  0.095232593   0.02199513  0.023903621  0.027093057  0.072991808 
  704000     -1795500    10508.314       711.07     76.89738    88.794136     81.13265    1395.0622  0.030243665  0.029696976  0.033884745  0.093825386  0.022326805  0.023556387  0.026909235  0.072792427 
  705000   -1795538.2    10570.786    493.19227     76.89738    88.794136     81.13265    1403.3558  0.030341932  0.029534408  0.034238937  0.094115276  0.022795279   0.02325251  0.027303367  0.073351156 
  706000   -1795524.2    10526.872     437.7826     76.89738    88.794136     81.13265     1397.526  0.029844264  0.029856893  0.035027433   0.09472859  0.022477309   0.02353881  0.027830329  0.073846448 
  707000   -1795530.7    10580.719    549.68635     76.89738    88.794136     81.13265    1404.6745  0.029351515  0.029485825  0.034251017  0.093088357  0.021806373  0.023909949  0.026717071  0.072433393 
  708000   -1795580.9    10556.418    120.16729     76.89738    88.794136     81.13265    1401.4484    0.0299167  0.029692192  0.033871277  0.093480169  0.022441052  0.023425345  0.027064197  0.072930593 
  709000   -1795580.8    10565.968    400.47153     76.89738    88.794136     81.13265    1402.7162  0.029947435  0.029824249   0.03427269  0.094044373  0.022098139  0.024116013  0.027324991  0.073539144 
  710000     -1795541    10538.208    256.89507     76.89738    88.794136     81.13265    1399.0309  0.030305135  0.029639338  0.034516581  0.094461054  0.022816272  0.023363177  0.027516652  0.073696101 
  711000   -1795477.4    10500.818    465.94647     76.89738    88.794136     81.13265     1394.067  0.029914614   0.03007418   0.03397292  0.093961713  0.022165107  0.023676583  0.027031989  0.072873679 
  712000   -1795461.9    10568.321    1123.5016     76.89738    88.794136     81.13265    1403.0286  0.029658376  0.030269514  0.034934914  0.094862803  0.022704762  0.024031712  0.027985192  0.074721665 
  713000   -1795505.2    10547.417    840.44495     76.89738    88.794136     81.13265    1400.2534  0.029671212  0.029764375  0.034400773   0.09383636  0.022641847  0.023589545  0.027209487  0.073440878 
  714000   -1795516.2     10584.82    685.54365     76.89738    88.794136     81.13265     1405.219  0.029160523  0.030171748  0.034261943  0.093594215  0.022325314  0.024243643  0.027354092   0.07392305 
  715000   -1795527.4    10506.062    254.36187     76.89738    88.794136     81.13265    1394.7633  0.029839105  0.029476074  0.034505046  0.093820225  0.022362436  0.023364749  0.027483868  0.073211052 
  716000   -1795483.6    10543.173    1028.6942     76.89738    88.794136     81.13265      1399.69  0.029580329  0.029687168  0.033849102  0.093116599  0.022435614  0.023661735   0.02707927   0.07317662 
  717000   -1795549.9    10498.501    354.41078     76.89738    88.794136     81.13265    1393.7595  0.029463668  0.029890238  0.034325304  0.093679209  0.022651736  0.023910087  0.027259396  0.073821219 
  718000   -1795497.5    10510.426    551.76925     76.89738    88.794136     81.13265    1395.3426  0.029696992  0.029949008   0.03413102  0.093777021  0.022475856  0.023876301  0.026843675  0.073195832 
  719000   -1795513.8    10495.694    490.15561     76.89738    88.794136     81.13265    1393.3868  0.029215693  0.029778566  0.034648789  0.093643048  0.022468053  0.024344603  0.027541504   0.07435416 
  720000     -1795465    10572.754    852.42045     76.89738    88.794136     81.13265    1403.6171  0.029718601  0.029139058  0.034480754  0.093338413  0.022126137  0.023514111  0.027460103  0.073100352 
  721000   -1795565.3    10614.064    328.12233     76.89738    88.794136     81.13265    1409.1013  0.029007151  0.029365615  0.034290162  0.092662928   0.02200687  0.024020137  0.026999077  0.073026083 
  722000   -1795519.6    10556.867    486.79365     76.89738    88.794136     81.13265     1401.508  0.029862734  0.028645037  0.034756787  0.093264558  0.022549885  0.023396887  0.027371348  0.073318119 
  723000   -1795581.4    10545.928    286.37489     76.89738    88.794136     81.13265    1400.0557  0.029351221  0.029665002  0.033905034  0.092921257   0.02204926  0.024125319  0.026976548  0.073151126 
  724000   -1795516.7    10570.477    1017.4728     76.89738    88.794136     81.13265    1403.3148   0.02863048  0.029812658  0.034852671  0.093295809  0.021789125  0.023931043  0.028018802   0.07373897 
  725000   -1795480.3    10518.199    848.96547     76.89738    88.794136     81.13265    1396.3745  0.029464676  0.029755204  0.034510599  0.093730479  0.021953939  0.023696116  0.027416191  0.073066246 
  726000   -1795509.8    10543.789    605.66328     76.89738    88.794136     81.13265    1399.7718   0.02945352  0.029760076  0.034083314   0.09329691  0.022282187  0.023845985  0.027106141  0.073234313 
  727000   -1795500.8    10533.942    725.01709     76.89738    88.794136     81.13265    1398.4645  0.029748193  0.029596086   0.03446507  0.093809349  0.022309222   0.02375992  0.027953852  0.074022994 
  728000   -1795436.4    10557.848    1068.9551     76.89738    88.794136     81.13265    1401.6382    0.0293485  0.029143563  0.033626957   0.09211902  0.022652716  0.023226763  0.026414549  0.072294028 
  729000   -1795534.2    10542.094    722.09684     76.89738    88.794136     81.13265    1399.5468  0.029493399  0.029558271  0.034278211  0.093329881  0.022074864  0.023564127  0.027213063  0.072852054 
  730000   -1795476.4    10527.515    703.47154     76.89738    88.794136     81.13265    1397.6113  0.029669305  0.030027907  0.035174614  0.094871825  0.022719775  0.024301908  0.028085763  0.075107445 
  731000   -1795529.5    10566.967    139.86853     76.89738    88.794136     81.13265    1402.8488  0.029569992  0.029557526  0.034051985  0.093179503  0.022645133  0.023496624  0.027413011  0.073554768 
  732000   -1795498.4    10485.909    539.23564     76.89738    88.794136     81.13265    1392.0877  0.029503985  0.029205598  0.034233948   0.09294353  0.022674731  0.023656653  0.027290767  0.073622151 
  733000   -1795496.3    10495.195    378.81582     76.89738    88.794136     81.13265    1393.3205  0.029057895  0.029466366  0.035362042  0.093886304  0.022333767  0.023787369  0.027726131  0.073847267 
  734000     -1795541    10603.108    650.57676     76.89738    88.794136     81.13265    1407.6469  0.029004648  0.029494205  0.034383154  0.092882007  0.022009409  0.024047468  0.027328276  0.073385152 
  735000     -1795486    10479.385    898.47809     76.89738    88.794136     81.13265    1391.2216  0.029194716  0.029027961  0.034109742  0.092332419  0.022473482  0.023739222  0.027094882  0.073307585 
  736000     -1795486    10517.268    384.37414     76.89738    88.794136     81.13265    1396.2509  0.029391673   0.02952399  0.035666249  0.094581911  0.022521487  0.024151823  0.028847071  0.075520381 
  737000   -1795507.5    10566.892     307.4323     76.89738    88.794136     81.13265    1402.8388  0.028168622  0.028949581  0.034289909  0.091408112  0.021894117  0.023565329  0.027063658  0.072523104 
  738000   -1795504.8    10482.878    633.19293     76.89738    88.794136     81.13265    1391.6853  0.029104044  0.029427484  0.035446213  0.093977741  0.022003108  0.023718206   0.02857693  0.074298244 
  739000   -1795514.2    10505.433    868.05206     76.89738    88.794136     81.13265    1394.6797  0.028687075  0.029715608  0.034921268  0.093323951  0.021875689  0.024434028  0.028326405  0.074636122 
  740000     -1795557    10566.881    578.37646     76.89738    88.794136     81.13265    1402.8374  0.029483467  0.029016907  0.034760869  0.093261243  0.021961736  0.023779383  0.027777671   0.07351879 
  741000   -1795542.6    10501.486    500.39854     76.89738    88.794136     81.13265    1394.1558  0.029862367  0.029565055  0.034152187  0.093579609  0.022848298  0.024187687  0.027087985  0.074123971 
  742000   -1795572.4    10618.215    752.55666     76.89738    88.794136     81.13265    1409.6524  0.028981374  0.029559478  0.034579244  0.093120097  0.022094013  0.024239194  0.027941509  0.074274717 
  743000     -1795561    10515.265   -4.4812926     76.89738    88.794136     81.13265    1395.9851  0.029865985  0.028893058  0.033885675  0.092644719   0.02233276  0.024168156  0.027119255  0.073620171 
  744000   -1795487.1    10589.885     688.0094     76.89738    88.794136     81.13265    1405.8914  0.029927117  0.029094609  0.033798423   0.09282015  0.022727194  0.023709246  0.027153511  0.073589952 
  745000   -1795513.4    10535.269    703.27942     76.89738    88.794136     81.13265    1398.6407  0.029664471  0.029428398  0.034974241  0.094067111  0.021972925    0.0236587  0.027940063  0.073571688 
  746000   -1795514.2    10549.795    297.46214     76.89738    88.794136     81.13265    1400.5691  0.030027946  0.028719255  0.034811983  0.093559185  0.022641916  0.023422547  0.027889378  0.073953841 
  747000   -1795423.4    10484.546    784.63463     76.89738    88.794136     81.13265    1391.9069  0.030066491  0.029685997  0.034539973  0.094292461  0.022521711  0.023502749  0.027695062  0.073719522 
  748000   -1795515.6      10525.6    608.60714     76.89738    88.794136     81.13265    1397.3571  0.030176416  0.029712248  0.035029113  0.094917777  0.023294798  0.023795384  0.028022625  0.075112808 
  749000   -1795478.5    10577.339    970.76443     76.89738    88.794136     81.13265    1404.2258  0.029441397  0.029515258  0.035357099  0.094313754  0.022110332  0.023861658  0.028335269  0.074307259 
  750000     -1795498     10603.56    870.94417     76.89738    88.794136     81.13265    1407.7069  0.028662834  0.030077374  0.035097748  0.093837956  0.021774998  0.024482625  0.027923212  0.074180835 
  751000   -1795457.8    10527.784    952.89378     76.89738    88.794136     81.13265     1397.647  0.029420698  0.030400223  0.033881268  0.093702188  0.022433968  0.024737344  0.027052609  0.074223921 
  752000   -1795549.2    10600.543    704.96735     76.89738    88.794136     81.13265    1407.3064  0.029812056   0.02993532   0.03450454  0.094251915  0.022316672  0.023975155  0.027605411  0.073897238 
  753000   -1795455.4    10558.295     1154.707     76.89738    88.794136     81.13265    1401.6976  0.030049618  0.029603552  0.034840814  0.094493984  0.023273407  0.023537556  0.027633278  0.074444242 
  754000   -1795592.4    10485.255    156.60461     76.89738    88.794136     81.13265    1392.0009  0.030010433  0.029781832   0.03475911  0.094551375  0.022955825  0.023883022   0.02822484  0.075063687 
  755000   -1795554.2    10491.496    48.734387     76.89738    88.794136     81.13265    1392.8294   0.02935563  0.029209334  0.034120742  0.092685706  0.022537119  0.023356065  0.026719642  0.072612825 
  756000   -1795542.9    10471.887    184.64127     76.89738    88.794136     81.13265    1390.2263  0.029350952  0.029533222  0.035117411  0.094001586  0.022292465  0.023259668  0.028000064  0.073552197 
  757000   -1795492.8    10561.435    408.54812     76.89738    88.794136     81.13265    1402.1144  0.030587126  0.029440454  0.034598831  0.094626411  0.023020674  0.023999571  0.027348533  0.074368777 
  758000   -1795513.9    10575.272    688.74009     76.89738    88.794136     81.13265    1403.9514  0.029710426  0.029911028   0.03400588  0.093627334  0.022291221  0.024013541  0.026877475  0.073182237 
  759000   -1795491.8    10496.716    710.35955     76.89738    88.794136     81.13265    1393.5225  0.029635597  0.029703831  0.035691233  0.095030661  0.022624795  0.024089031  0.027829154   0.07454298 
  760000   -1795537.4    10539.707    297.63312     76.89738    88.794136     81.13265    1399.2298  0.030417345  0.030140022   0.03362034  0.094177707  0.023069093  0.023800471  0.026782375  0.073651938 
  761000   -1795491.9    10535.547    895.99631     76.89738    88.794136     81.13265    1398.6776  0.029400662  0.029681267  0.034453665  0.093535594   0.02194587  0.024097704  0.027445514  0.073489089 
  762000   -1795536.8    10590.781    847.72904     76.89738    88.794136     81.13265    1406.0104  0.029838355  0.030158057  0.035170175  0.095166587  0.022240396  0.023994736  0.027762754  0.073997886 
  763000   -1795486.8    10564.424    847.40764     76.89738    88.794136     81.13265    1402.5113  0.029883176   0.02955933  0.034580614   0.09402312  0.022561158  0.022958134   0.02719126  0.072710553 
  764000   -1795501.8    10547.272    697.73608     76.89738    88.794136     81.13265    1400.2343  0.029504374  0.029932483    0.0349496  0.094386457  0.022485383  0.024293448  0.027786273  0.074565105 
  765000   -1795530.8     10519.68    425.84492     76.89738    88.794136     81.13265    1396.5711  0.029771028   0.02992093  0.034861777  0.094553735   0.02251868   0.02384521   0.02817415  0.074538039 
  766000   -1795491.6    10547.443    273.78559     76.89738    88.794136     81.13265    1400.2569  0.029843696  0.029930158  0.034945835  0.094719689  0.022114296  0.023666059   0.02745003  0.073230385 
  767000   -1795532.8    10607.853   -16.985474     76.89738    88.794136     81.13265    1408.2767  0.029178733  0.029479221  0.033557519  0.092215473  0.021913504  0.023808955  0.027098022  0.072820481 
  768000   -1795492.5    10541.111    351.14527     76.89738    88.794136     81.13265    1399.4163  0.030200391  0.029788789  0.035573661  0.095562841  0.022126883  0.023565441  0.027943934  0.073636258 
  769000   -1795427.3    10566.932    409.82055     76.89738    88.794136     81.13265    1402.8442  0.030484615  0.029270498  0.034908369  0.094663482  0.022611826  0.023527729  0.027512541  0.073652097 
  770000   -1795491.8    10599.303    1023.4666     76.89738    88.794136     81.13265    1407.1417  0.030347609   0.02934934   0.03461649  0.094313439  0.022854967  0.023580329  0.027648791  0.074084086 
  771000   -1795478.4    10552.329    394.14111     76.89738    88.794136     81.13265    1400.9055  0.030030301  0.029661808  0.035617407  0.095309516  0.022046566  0.023669207  0.027775044  0.073490817 
  772000   -1795455.3    10597.092    750.05614     76.89738    88.794136     81.13265    1406.8481   0.03055384  0.029477668  0.034670656  0.094702164  0.022254045  0.024119877  0.027281238  0.073655159 
  773000   -1795566.1    10532.145    223.02611     76.89738    88.794136     81.13265     1398.226  0.030385246  0.029642388  0.034821812  0.094849446  0.022436459   0.02315967  0.028309759  0.073905888 
  774000   -1795573.4    10503.778    207.92589     76.89738    88.794136     81.13265    1394.4601  0.029807975  0.030285446   0.03428379  0.094377211  0.022335124  0.024066067  0.027590172  0.073991363 
  775000   -1795575.1    10530.326    407.07231     76.89738    88.794136     81.13265    1397.9845  0.029740327  0.029790145  0.034530778   0.09406125  0.022579752  0.024026313  0.027362747  0.073968812 
  776000   -1795529.3    10580.018    527.08952     76.89738    88.794136     81.13265    1404.5814  0.029903025  0.029614733   0.03420498  0.093722739  0.021717593  0.023549376  0.027384113  0.072651082 
  777000   -1795502.8    10554.405    784.66945     76.89738    88.794136     81.13265    1401.1811   0.02911406  0.029510704  0.034533673  0.093158438   0.02151653   0.02372545  0.027915028  0.073157009 
  778000   -1795477.1    10567.069    954.32335     76.89738    88.794136     81.13265    1402.8623  0.029261681  0.030308878  0.034642689  0.094213248  0.021920746  0.024196083  0.027303279  0.073420109 
  779000   -1795609.4    10567.349    16.676695     76.89738    88.794136     81.13265    1402.8995  0.029395908  0.030069429  0.034452501  0.093917837  0.022400702   0.02339888  0.027028427  0.072828009 
  780000   -1795520.9    10543.939    754.92582     76.89738    88.794136     81.13265    1399.7917  0.029535243  0.029800503  0.034760647  0.094096394  0.022852194  0.023864792  0.028106905  0.074823892 
  781000   -1795519.2    10543.504     874.2549     76.89738    88.794136     81.13265     1399.734  0.029769716  0.029412715  0.033923394  0.093105824  0.022568303  0.023864079  0.027225548   0.07365793 
  782000   -1795502.9    10490.251    369.73481     76.89738    88.794136     81.13265    1392.6642  0.028944056  0.029593066   0.03471679  0.093253911  0.022037082  0.023974786  0.027246143   0.07325801 
  783000   -1795499.7    10501.169    402.18162     76.89738    88.794136     81.13265    1394.1136  0.028833313  0.029848645  0.034746688  0.093428646  0.021882262  0.024483583   0.02746902  0.073834865 
  784000   -1795609.7     10519.79    67.900261     76.89738    88.794136     81.13265    1396.5857  0.028875078  0.029716995  0.034514439  0.093106513  0.022141195  0.023772686   0.02754138  0.073455262 
  785000   -1795502.3    10480.134    24.537901     76.89738    88.794136     81.13265    1391.3212  0.029808024  0.029886958   0.03453597  0.094230952  0.022584754  0.024685159  0.027132532  0.074402445 
  786000   -1795585.6    10537.764    516.75868     76.89738    88.794136     81.13265     1398.972  0.029075576  0.029244525  0.034964133  0.093284233   0.02199069  0.023572111  0.027809479   0.07337228 
  787000   -1795526.4     10533.09    273.36281     76.89738    88.794136     81.13265    1398.3514  0.029234815  0.029012226  0.034699718  0.092946758  0.022277257  0.023710005  0.027170859  0.073158121 
  788000     -1795553    10570.291    610.28802     76.89738    88.794136     81.13265    1403.2901  0.029613716  0.029234692  0.034078141  0.092926549  0.022437355  0.023590757   0.02731534  0.073343452 
  789000   -1795519.3    10604.891    822.65527     76.89738    88.794136     81.13265    1407.8836  0.029143193   0.02945565  0.034726716  0.093325559  0.022412696  0.023952965  0.027715801  0.074081462 
  790000   -1795538.2    10548.898    216.16746     76.89738    88.794136     81.13265    1400.4501  0.029401035  0.028821072  0.035237655  0.093459763  0.022234362  0.023294961  0.027900424  0.073429747 
  791000   -1795498.8    10534.353    618.23964     76.89738    88.794136     81.13265    1398.5191  0.028497623  0.029431554  0.034168269  0.092097446  0.022125625  0.023441857  0.027228437  0.072795919 
  792000   -1795441.4    10484.378    916.67584     76.89738    88.794136     81.13265    1391.8845  0.029239062  0.029628416  0.034882874  0.093750351  0.022818471  0.024013953  0.027684008  0.074516431 
  793000   -1795518.4    10549.641     755.1865     76.89738    88.794136     81.13265    1400.5487  0.028845767  0.029086865  0.034319186  0.092251819  0.022426391  0.023780029  0.027524702  0.073731121 
  794000   -1795504.7    10564.267    798.59862     76.89738    88.794136     81.13265    1402.4905  0.029037729   0.02929157  0.034357144  0.092686443  0.022675338  0.024301304  0.027640399  0.074617041 
  795000   -1795492.2    10549.294    618.67656     76.89738    88.794136     81.13265    1400.5026  0.029336968  0.029219617  0.035030158  0.093586743  0.022759695  0.023660482  0.027637032  0.074057209 
  796000   -1795479.5    10557.665     677.5528     76.89738    88.794136     81.13265     1401.614  0.028993516  0.028829291  0.034851702  0.092674509  0.022584621  0.023679972  0.027532596  0.073797189 
  797000   -1795470.7    10603.569    856.99492     76.89738    88.794136     81.13265    1407.7081  0.029870557  0.029217449  0.035164221  0.094252227  0.023241429  0.023673115  0.027572415   0.07448696 
  798000   -1795576.9    10431.484    353.93418     76.89738    88.794136     81.13265    1384.8624  0.029770003  0.028951526  0.034659441   0.09338097  0.022606404  0.023568044  0.027014872   0.07318932 
  799000   -1795574.1    10579.767    380.67907     76.89738    88.794136     81.13265    1404.5482  0.029786451  0.028689625  0.034190863  0.092666939  0.022312679  0.023733726  0.027021558  0.073067963 
  800000   -1795525.7    10570.128    875.83168     76.89738    88.794136     81.13265    1403.2685  0.029482621  0.028162106  0.033942697  0.091587423  0.021855592  0.023334536  0.026985881  0.072176009 
  801000   -1795544.7    10599.785    509.94619     76.89738    88.794136     81.13265    1407.2058  0.029360942  0.028107355  0.034195229  0.091663526  0.022037803  0.023166916  0.027037585  0.072242304 
  802000     -1795473    10601.031    918.99866     76.89738    88.794136     81.13265    1407.3711  0.030513362  0.029353972  0.034306854  0.094174188  0.022819941  0.024742487  0.026844137  0.074406565 
  803000   -1795523.9    10572.592    1218.7628     76.89738    88.794136     81.13265    1403.5957  0.029524809  0.028520068  0.035211288  0.093256165  0.022256421  0.023848541   0.02819716  0.074302121 
  804000   -1795541.3    10568.416    822.16254     76.89738    88.794136     81.13265    1403.0413  0.029575928  0.029480483  0.034802277  0.093858688  0.022299558  0.025034298  0.027500797  0.074834653 
  805000   -1795480.3    10562.279    1061.9485     76.89738    88.794136     81.13265    1402.2265  0.029431932   0.02906738  0.034696232  0.093195544  0.022402412   0.02414276  0.027753222  0.074298394 
  806000   -1795464.5    10569.602    635.81724     76.89738    88.794136     81.13265    1403.1987  0.029269098  0.028994485  0.034629829  0.092893412   0.02199287  0.024184752  0.027117463  0.073295085 
  807000   -1795439.7    10569.595    931.22747     76.89738    88.794136     81.13265    1403.1978  0.030091415  0.029130331  0.034180741  0.093402487  0.022874163  0.023968026  0.027119444  0.073961633 
  808000   -1795516.8    10539.238    780.78119     76.89738    88.794136     81.13265    1399.1675  0.029710833  0.029331857   0.03489598   0.09393867  0.022769715  0.024316544  0.028112686  0.075198944 
  809000     -1795517    10562.783    736.48197     76.89738    88.794136     81.13265    1402.2933  0.029299285  0.029337419  0.034616425   0.09325313  0.022117122  0.024234543  0.027238875  0.073590541 
  810000   -1795499.4    10548.035    974.66007     76.89738    88.794136     81.13265    1400.3355  0.028992282  0.029564141  0.035348163  0.093904586  0.022019625  0.023786079  0.027907388  0.073713092 
  811000   -1795587.6    10541.519    76.994185     76.89738    88.794136     81.13265    1399.4704  0.029643962  0.029175629  0.034522269   0.09334186  0.022098665  0.023793169   0.02743472  0.073326555 
  812000     -1795515    10600.325    728.37805     76.89738    88.794136     81.13265    1407.2774   0.02954379  0.029227735  0.034901201  0.093672726   0.02182538  0.023765031  0.027748655  0.073339065 
  813000   -1795472.9    10523.951    823.53978     76.89738    88.794136     81.13265    1397.1382  0.029677647   0.02978476  0.035462783   0.09492519  0.022623499  0.024256493      0.02763  0.074509993 
  814000   -1795505.9    10538.976    536.44338     76.89738    88.794136     81.13265    1399.1329  0.030126819  0.029012377  0.034652804     0.093792  0.022691889  0.023881896  0.026748206   0.07332199 
  815000   -1795462.6     10544.76    1357.1806     76.89738    88.794136     81.13265    1399.9008  0.029699539  0.029615393  0.035460949   0.09477588  0.022127174  0.024392712   0.02830998  0.074829865 
  816000   -1795464.3    10548.902    616.81458     76.89738    88.794136     81.13265    1400.4506  0.029550954  0.029523927  0.034057652  0.093132532  0.021750368  0.024308057  0.027043012  0.073101437 
  817000   -1795537.9    10528.769    714.78256     76.89738    88.794136     81.13265    1397.7777  0.029697257  0.029888241  0.034172308  0.093757806  0.022239148  0.024692228  0.026979088  0.073910464 
  818000   -1795449.2    10603.035    1283.1117     76.89738    88.794136     81.13265    1407.6372  0.029791243  0.029540704  0.035286215  0.094618163  0.022445813  0.023993498  0.027888565  0.074327877 
  819000   -1795558.6    10575.826    562.49665     76.89738    88.794136     81.13265     1404.025  0.030003386  0.029540994  0.034187383  0.093731763  0.022221321  0.024638874   0.02702073  0.073880925 
  820000     -1795526    10576.245    783.26362     76.89738    88.794136     81.13265    1404.0805   0.02932714   0.02892998  0.034611316  0.092868437  0.022004283  0.023653613  0.027537359  0.073195256 
  821000   -1795500.1    10589.669    966.40014     76.89738    88.794136     81.13265    1405.8627  0.029469157   0.02919254  0.034261754  0.092923451  0.022637939  0.023952029  0.026877576  0.073467544 
  822000   -1795482.7    10653.044    1230.1988     76.89738    88.794136     81.13265    1414.2763  0.030024359  0.029371709  0.035463747  0.094859816  0.023004911  0.024776776  0.028590607  0.076372294 
  823000   -1795517.5    10452.848    167.90092     76.89738    88.794136     81.13265    1387.6987   0.03017543  0.029365143  0.034175204  0.093715777  0.022773804  0.024471585  0.027032932  0.074278321 
  824000   -1795533.1    10594.032    463.32068     76.89738    88.794136     81.13265     1406.442  0.029210875  0.028281381  0.034778614   0.09227087  0.022185827  0.023762888  0.028040018  0.073988732 
  825000   -1795468.9    10508.956    810.92065     76.89738    88.794136     81.13265    1395.1475   0.02940739  0.029130535  0.034437175    0.0929751  0.021943704  0.023811205  0.028219257  0.073974166 
  826000   -1795565.7    10532.703    252.58073     76.89738    88.794136     81.13265       1398.3  0.028943011  0.029080871  0.033691168  0.091715049  0.022195781   0.02396404  0.027435076  0.073594897 
  827000   -1795521.5     10565.51    573.85772     76.89738    88.794136     81.13265    1402.6555  0.029949096  0.028932596  0.034917934  0.093799626   0.02262668  0.023493511  0.027808106  0.073928297 
  828000   -1795521.1    10609.241     652.2177     76.89738    88.794136     81.13265     1408.461  0.029534202  0.028835231   0.03363973  0.092009164  0.022354222  0.024302283  0.027288989  0.073945494 
  829000   -1795549.5    10535.217    437.64504     76.89738    88.794136     81.13265    1398.6338   0.02926533  0.029406521  0.034481153  0.093153004   0.02238114  0.024032426  0.027273758  0.073687324 
  830000   -1795443.3    10539.213    955.87917     76.89738    88.794136     81.13265    1399.1643  0.029545307  0.028982674  0.034463876  0.092991856  0.022899981  0.023882123  0.027320236  0.074102339 
  831000   -1795481.8    10546.837    908.06359     76.89738    88.794136     81.13265    1400.1764  0.029299955  0.028873673  0.035079703  0.093253332  0.022097723  0.023700586   0.02788844   0.07368675 
  832000   -1795491.5    10564.227    822.52484     76.89738    88.794136     81.13265    1402.4852  0.029185683  0.029606005  0.034371812    0.0931635  0.022582783  0.024633421  0.027431704  0.074647909 
  833000   -1795560.1    10568.439    221.44904     76.89738    88.794136     81.13265    1403.0443  0.028661632  0.028993975  0.034801381  0.092456988   0.02188718  0.023857131   0.02812658  0.073870892 
  834000   -1795459.5    10510.413    1031.4032     76.89738    88.794136     81.13265    1395.3408  0.029199622   0.02883821    0.0356348  0.093672632  0.022610588  0.023582822  0.028920899  0.075114309 
  835000   -1795505.5    10543.662    529.98448     76.89738    88.794136     81.13265    1399.7549  0.028855361  0.029132145  0.034343834   0.09233134  0.022020137  0.023536376  0.027409017   0.07296553 
  836000   -1795461.7    10610.422    785.62557     76.89738    88.794136     81.13265    1408.6179  0.028991794  0.029556395  0.034982899  0.093531088   0.02247672  0.024451942  0.028274781  0.075203442 
  837000   -1795533.3    10542.969    655.77415     76.89738    88.794136     81.13265    1399.6629  0.029696958  0.030104448  0.034785135  0.094586542  0.022478962  0.024836709   0.02752245  0.074838122 
  838000   -1795462.2    10503.719    819.81188     76.89738    88.794136     81.13265    1394.4521  0.029174517  0.029212718  0.035445362  0.093832597  0.021794137  0.023739734  0.028558975  0.074092846 
  839000   -1795522.2    10579.925    500.51305     76.89738    88.794136     81.13265    1404.5692  0.029645197  0.029990473  0.034669274  0.094304944   0.02266192  0.024984595  0.027803243  0.075449758 
  840000   -1795523.1    10546.429     403.2649     76.89738    88.794136     81.13265    1400.1223  0.029235788  0.028792496  0.034922916    0.0929512  0.021877703  0.023831138  0.028028856  0.073737697 
  841000   -1795521.9    10560.301    647.17956     76.89738    88.794136     81.13265    1401.9639  0.029203921  0.029067425  0.035421916  0.093693261  0.022244884  0.023831327  0.027779178  0.073855389 
  842000   -1795492.7    10542.336    636.78333     76.89738    88.794136     81.13265    1399.5789  0.029003291  0.030575976  0.034242983  0.093822249  0.022485277   0.02498413  0.027257857  0.074727264 
  843000     -1795488    10566.895    579.64174     76.89738    88.794136     81.13265    1402.8392  0.029405444   0.02964439  0.035847278  0.094897112  0.022203802  0.024172486  0.028684326  0.075060614 
  844000     -1795501    10498.583    352.41328     76.89738    88.794136     81.13265    1393.7704  0.029674707  0.028861511   0.03411134  0.092647557  0.022244292  0.023591535  0.027452738  0.073288565 
  845000     -1795566    10574.403    330.71793     76.89738    88.794136     81.13265     1403.836  0.029225588  0.029116309  0.035089214  0.093431111  0.022323799  0.023882776  0.027907697  0.074114273 
  846000   -1795551.2    10523.398    615.47783     76.89738    88.794136     81.13265    1397.0647  0.029917281   0.02948235  0.035348782  0.094748413  0.022831259  0.024172542  0.028182276  0.075186077 
  847000     -1795537    10529.042    248.72407     76.89738    88.794136     81.13265     1397.814  0.029539133  0.029388021  0.034003356   0.09293051  0.022249574  0.024170968  0.026978984  0.073399526 
  848000   -1795479.6    10561.033    1083.8277     76.89738    88.794136     81.13265    1402.0611  0.030257036  0.028938164  0.034926639  0.094121839  0.022438558  0.024142861  0.027366329  0.073947747 
  849000   -1795493.8    10514.118    637.59738     76.89738    88.794136     81.13265    1395.8328  0.029804128  0.028959322  0.034948912  0.093712362  0.022311917   0.02410984  0.027939232  0.074360988 
  850000   -1795516.4    10495.821    118.49898     76.89738    88.794136     81.13265    1393.4037  0.029529512  0.029384363  0.035410377  0.094324252  0.022183459  0.024402901  0.028578699  0.075165059 
  851000   -1795407.2    10575.394    1380.3444     76.89738    88.794136     81.13265    1403.9676  0.030578424  0.028675546   0.03511579  0.094369761  0.022853686  0.023935566   0.02751611  0.074305363 
  852000   -1795511.6    10636.887    682.87301     76.89738    88.794136     81.13265    1412.1313  0.030193199   0.02863871  0.034139552  0.092971461   0.02232518   0.02382775  0.027874505  0.074027435 
  853000   -1795524.4    10549.916     733.3645     76.89738    88.794136     81.13265    1400.5851  0.030610189   0.02876536  0.034414065  0.093789614  0.022506614   0.02385232  0.027946907  0.074305841 
  854000   -1795498.1    10506.411    439.60132     76.89738    88.794136     81.13265    1394.8096   0.02960691  0.029071112  0.034096425  0.092774447  0.022274923   0.02392542   0.02699728  0.073197622 
  855000   -1795440.4    10555.628    1400.9428     76.89738    88.794136     81.13265    1401.3436  0.030658786  0.029198652  0.035277259  0.095134698  0.022872585  0.023659525  0.027796556  0.074328667 
  856000   -1795519.7    10615.877    280.85394     76.89738    88.794136     81.13265    1409.3421  0.029810006  0.029017115  0.034513565  0.093340686  0.022656987  0.024016136  0.026922463  0.073595585 
  857000   -1795522.5    10592.576    561.56143     76.89738    88.794136     81.13265    1406.2486  0.029311665  0.029393268   0.03514016  0.093845093  0.022319187  0.024024237  0.028560696  0.074904121 
  858000     -1795473    10602.868    1157.1993     76.89738    88.794136     81.13265     1407.615  0.029211786  0.028909747  0.034225384  0.092346918  0.022587474  0.023784449  0.027172457   0.07354438 
  859000   -1795570.3    10577.435    460.32176     76.89738    88.794136     81.13265    1404.2385  0.028372307  0.028989319  0.034998346  0.092359972  0.022094557  0.023999772  0.027965321  0.074059649 
  860000   -1795498.9    10511.541    792.86379     76.89738    88.794136     81.13265    1395.4907  0.028995774   0.02968903  0.035276023  0.093960826    0.0224193  0.024944942  0.028178152  0.075542393 
  861000   -1795481.5    10560.759    852.52006     76.89738    88.794136     81.13265    1402.0247   0.02845875  0.029008089  0.034118756  0.091585595  0.022201843  0.024414624  0.026905099  0.073521565 
  862000   -1795580.5    10539.559    366.18441     76.89738    88.794136     81.13265    1399.2102  0.028794691    0.0286114  0.035428141  0.092834232  0.022267868  0.023746126  0.028543246   0.07455724 
  863000   -1795531.4    10511.519    842.90482     76.89738    88.794136     81.13265    1395.4876  0.029221035   0.02887635  0.033917982  0.092015367  0.022347933  0.023767477  0.026827795  0.072943205 
  864000   -1795463.5    10501.587    928.25909     76.89738    88.794136     81.13265    1394.1691  0.029009901  0.028986179  0.035031238  0.093027317  0.022466679  0.024538851  0.027875745  0.074881276 
  865000   -1795498.8    10588.498    1023.2615     76.89738    88.794136     81.13265    1405.7072  0.029159048   0.02876183  0.034438739  0.092359617  0.022443434  0.024422686  0.027664486  0.074530606 
  866000   -1795488.6    10586.244    885.10157     76.89738    88.794136     81.13265     1405.408  0.028737608   0.02883914  0.034473676  0.092050424  0.022454013   0.02425424  0.027334995  0.074043249 
  867000   -1795476.4    10590.205    1120.5333     76.89738    88.794136     81.13265    1405.9339  0.029098479  0.029158791   0.03474209   0.09299936  0.022200356  0.024569994  0.027411756  0.074182106 
  868000   -1795499.4    10568.607    1028.8526     76.89738    88.794136     81.13265    1403.0666  0.029243594  0.028959462  0.034113802  0.092316859  0.022472795   0.02447279  0.027306807  0.074252393 
  869000   -1795442.8    10583.358    904.15222     76.89738    88.794136     81.13265    1405.0249  0.029353776  0.028703202  0.035678197  0.093735175  0.022241651  0.023561887   0.02851546  0.074318998 
  870000   -1795505.5    10542.452     831.1387     76.89738    88.794136     81.13265    1399.5943  0.028990349   0.02926152   0.03499047  0.093242339  0.023185539  0.024551131  0.028020631  0.075757301 
  871000     -1795465    10542.526    969.31965     76.89738    88.794136     81.13265    1399.6042  0.028465334  0.028850824  0.034977168  0.092293326  0.022103457  0.024443683  0.027408851  0.073955991 
  872000   -1795493.3     10592.12    1175.9529     76.89738    88.794136     81.13265    1406.1882  0.029179672  0.028424235  0.034069249  0.091673156  0.022514404  0.023856353  0.027472098  0.073842855 
  873000   -1795516.1    10535.434    215.57854     76.89738    88.794136     81.13265    1398.6626  0.029503054  0.028553169  0.034334787  0.092391009  0.022718031   0.02383663  0.027439892  0.073994553 
  874000   -1795516.4    10542.287    330.34715     76.89738    88.794136     81.13265    1399.5724  0.029554423  0.028529784  0.034481808  0.092566015  0.022203532  0.024009207  0.027393906  0.073606644 
  875000   -1795496.7    10604.982    1110.4326     76.89738    88.794136     81.13265    1407.8957  0.029632784  0.028619918  0.034223564  0.092476266  0.023109741  0.023906608   0.02747954  0.074495888 
  876000   -1795506.7    10559.061    672.95437     76.89738    88.794136     81.13265    1401.7993  0.029548237  0.028927996  0.035214569  0.093690802   0.02275844  0.023722897  0.028697261  0.075178598 
  877000   -1795456.5    10585.008    1192.3269     76.89738    88.794136     81.13265     1405.244  0.030186348  0.029029138  0.034680183  0.093895669    0.0234528  0.023888866  0.027993271  0.075334937 
  878000   -1795510.1    10564.943    678.38227     76.89738    88.794136     81.13265    1402.5802  0.028985805  0.028788577  0.034640335  0.092414717  0.022152929  0.024200948  0.027538896  0.073892773 
  879000   -1795541.9    10508.122    314.70114     76.89738    88.794136     81.13265    1395.0367  0.029518485  0.028637117  0.035428353  0.093583955  0.022260357  0.023360081   0.02860042  0.074220858 
  880000   -1795492.6    10537.406    589.19666     76.89738    88.794136     81.13265    1398.9244  0.029503514  0.028845829  0.034262804  0.092612147  0.022621499   0.02420696  0.026919718  0.073748176 
  881000   -1795527.2    10525.097    437.43415     76.89738    88.794136     81.13265    1397.2903  0.029177407  0.028871372  0.035183031   0.09323181  0.022393669  0.023985682  0.028143996  0.074523347 
  882000   -1795518.6    10528.762    269.61271     76.89738    88.794136     81.13265    1397.7769  0.030208944  0.029062211  0.034705647  0.093976802  0.022741072  0.024421775  0.028172684   0.07533553 
  883000   -1795556.1     10572.14    232.66405     76.89738    88.794136     81.13265    1403.5356  0.029963831  0.029258519   0.03422504  0.093447391   0.02283491  0.023860363   0.02734247  0.074037744 
  884000   -1795497.9    10591.956    963.12267     76.89738    88.794136     81.13265    1406.1663  0.029483821   0.02903923  0.034844154  0.093367205  0.022377036  0.023722168  0.028222424  0.074321627 
  885000   -1795526.8    10555.013    837.17707     76.89738    88.794136     81.13265    1401.2618  0.029445765  0.028912854  0.034185385  0.092544004  0.022182867  0.024233303  0.027619965  0.074036135 
  886000   -1795577.4    10496.561    103.86343     76.89738    88.794136     81.13265    1393.5019  0.029653098  0.029045107  0.033989725   0.09268793  0.022792238  0.024436386  0.027222271  0.074450895 
  887000   -1795478.9    10615.403    978.78876     76.89738    88.794136     81.13265    1409.2791  0.029686312  0.029417729  0.034009193  0.093113234  0.023049378  0.024299564  0.027230337  0.074579279 
  888000   -1795501.2    10488.629     650.5524     76.89738    88.794136     81.13265    1392.4488  0.029192682  0.028996012  0.035065678  0.093254371    0.0224506  0.024298199  0.028100149  0.074848949 
  889000   -1795510.6    10506.735    642.05517     76.89738    88.794136     81.13265    1394.8526  0.029754366  0.028605617   0.03416199  0.092521973  0.023101435  0.023971202  0.027715117  0.074787755 
  890000   -1795483.2    10596.397    693.99187     76.89738    88.794136     81.13265    1406.7559  0.029414716  0.029207944  0.035135643  0.093758304  0.022973515  0.024225208  0.027875426  0.075074149 
  891000   -1795551.4    10533.785    387.75002     76.89738    88.794136     81.13265    1398.4437  0.029009249  0.029354555  0.034709925  0.093073729   0.02262105  0.024422186  0.027361573  0.074404809 
  892000   -1795532.1    10531.194     448.4893     76.89738    88.794136     81.13265    1398.0997  0.028959565   0.02856392  0.034009267  0.091532753  0.022766447  0.023693544  0.027241479  0.073701469 
  893000   -1795469.5     10554.72    855.92631     76.89738    88.794136     81.13265     1401.223  0.028739335  0.029320972  0.034833427  0.092893734  0.022055719  0.024361113  0.027586032  0.074002864 
  894000   -1795551.7    10567.313    562.60486     76.89738    88.794136     81.13265    1402.8948  0.029458168  0.030002471   0.03451237  0.093973009  0.023183804   0.02512665  0.027626415   0.07593687 
  895000   -1795515.9    10613.456    651.51154     76.89738    88.794136     81.13265    1409.0206  0.029192465  0.029189642  0.034366587  0.092748694  0.022311024  0.023928003  0.027214482  0.073453509 
  896000   -1795526.4    10508.445    960.08027     76.89738    88.794136     81.13265    1395.0796  0.029069952  0.029198012  0.034724303  0.092992267   0.02254051  0.024129831  0.027801345  0.074471687 
  897000   -1795537.1     10608.36    378.15702     76.89738    88.794136     81.13265    1408.3441  0.028968804  0.028741689  0.034354025  0.092064517  0.022664176  0.023918922  0.027276415  0.073859513 
  898000   -1795534.2    10546.048     647.2138     76.89738    88.794136     81.13265    1400.0716  0.028923336  0.028324742  0.034544861   0.09179294   0.02272219  0.023420103  0.027315258   0.07345755 
  899000   -1795501.8    10555.289    562.58739     76.89738    88.794136     81.13265    1401.2985  0.028988209  0.028638132  0.034015458  0.091641799  0.023372246  0.023784709   0.02686125  0.074018205 
  900000   -1795522.8    10570.645    422.50117     76.89738    88.794136     81.13265    1403.3372  0.028479375  0.027901711  0.034117561  0.090498647  0.022463898   0.02374453  0.027328613  0.073537041 
  901000   -1795515.4    10532.118    498.84738     76.89738    88.794136     81.13265    1398.2224  0.029143265  0.028397549  0.033960904  0.091501718   0.02250538  0.024040608  0.027037526  0.073583513 
  902000   -1795584.3    10604.269   -136.96847     76.89738    88.794136     81.13265    1407.8011  0.029326733    0.0280538  0.034800367  0.092180899  0.022677872  0.023578001  0.027482999  0.073738872 
  903000   -1795553.9    10552.289    728.16731     76.89738    88.794136     81.13265    1400.9003  0.028972647  0.028063483   0.03481583  0.091851961  0.022478145  0.023761063   0.02768489  0.073924098 
  904000   -1795553.3    10530.412    -358.7931     76.89738    88.794136     81.13265    1397.9958  0.029223414  0.028169904  0.033660893   0.09105421  0.022671284   0.02404913  0.027236678  0.073957092 
  905000     -1795511    10582.928     601.3088     76.89738    88.794136     81.13265    1404.9678  0.029418794   0.02820946  0.034151008  0.091779263  0.022435571   0.02416193  0.027244426  0.073841927 
  906000   -1795517.8    10544.972    164.24471     76.89738    88.794136     81.13265    1399.9288  0.029519719  0.027781652  0.033889024  0.091190395  0.023077961  0.024145695  0.026848752  0.074072408 
  907000   -1795518.1     10602.27    679.75316     76.89738    88.794136     81.13265    1407.5356  0.029586154   0.02787795  0.034946986   0.09241109  0.022850306  0.023575962  0.027959957  0.074386225 
  908000   -1795432.6    10540.415    535.17189     76.89738    88.794136     81.13265    1399.3238  0.030284222  0.028657537  0.033943738  0.092885497   0.02306932  0.024298044  0.026844195  0.074211559 
  909000   -1795517.7    10510.248    176.30147     76.89738    88.794136     81.13265     1395.319  0.029735221  0.028274573  0.034967662  0.092977456  0.022770144  0.024360165  0.028283609  0.075413918 
  910000   -1795510.4    10547.207    357.63195     76.89738    88.794136     81.13265    1400.2256  0.030280262  0.028062433   0.03387177  0.092214465  0.022903194  0.024018602  0.026513388  0.073435184 
  911000   -1795468.6    10466.438    339.64326     76.89738    88.794136     81.13265    1389.5028   0.03036813  0.028051082  0.034004433  0.092423645  0.023142975   0.02407633  0.027027564  0.074246868 
  912000   -1795522.3    10586.349    756.78211     76.89738    88.794136     81.13265     1405.422  0.030217177  0.028467344  0.034926925  0.093611447  0.022453086  0.024475346  0.027713853  0.074642284 
  913000   -1795517.9    10532.275    391.08633     76.89738    88.794136     81.13265    1398.2432  0.030079965  0.028387834  0.033516768  0.091984567  0.022538246  0.024192608  0.026374897  0.073105751 
  914000   -1795553.3     10573.91     324.4542     76.89738    88.794136     81.13265    1403.7706  0.030411724  0.028760203  0.035361579  0.094533505  0.023132406  0.024549065  0.028118722  0.075800192 
  915000     -1795523    10602.511    634.95719     76.89738    88.794136     81.13265    1407.5676   0.03022409  0.028606621  0.034654461  0.093485171  0.022959947  0.024369682  0.027418627  0.074748256 
  916000   -1795450.2      10520.8    408.35002     76.89738    88.794136     81.13265    1396.7198  0.029880281  0.028675329  0.035606774  0.094162384  0.023058454  0.024095275  0.028073463  0.075227192 
  917000   -1795489.8    10590.804    1031.8889     76.89738    88.794136     81.13265    1406.0134   0.02944545  0.029052788  0.034163435  0.092661672  0.022440979   0.02411148  0.026620097  0.073172555 
  918000   -1795473.6    10530.765    710.95884     76.89738    88.794136     81.13265    1398.0427   0.03000644  0.028777687  0.034113934  0.092898061  0.022817781   0.02442662  0.027308515  0.074552916 
  919000   -1795513.3    10530.075    517.80148     76.89738    88.794136     81.13265    1397.9512  0.030198124  0.029094873  0.035471654   0.09476465  0.022478185  0.024279329  0.028571533  0.075329047 
  920000   -1795517.2    10521.684    593.50595     76.89738    88.794136     81.13265    1396.8372   0.02960136  0.028446465  0.033824604  0.091872429  0.022158572  0.023797587  0.026354249  0.072310408 
  921000   -1795505.4    10509.814    870.50965     76.89738    88.794136     81.13265    1395.2613   0.02972988  0.028639344  0.034981194  0.093350418  0.022801605  0.023758972  0.027803412  0.074363989 
  922000   -1795495.7    10618.827    1147.1395     76.89738    88.794136     81.13265    1409.7337  0.029443525   0.02896927  0.034672129  0.093084924  0.022616171  0.024049338  0.027689155  0.074354664 
  923000   -1795531.2    10569.644    730.75374     76.89738    88.794136     81.13265    1403.2043  0.029531899  0.029129254  0.034969375  0.093630528  0.022655186  0.023818971  0.027221839  0.073695996 
  924000   -1795511.8    10562.015    1098.4784     76.89738    88.794136     81.13265    1402.1915  0.029820533  0.029290479   0.03426693  0.093377943  0.022920329  0.024198476  0.027345414  0.074464219 
  925000     -1795516    10490.111    638.23564     76.89738    88.794136     81.13265    1392.6457  0.030125347   0.02917442  0.034203387  0.093503154  0.022728604  0.024202283  0.027277503   0.07420839 
  926000     -1795506    10582.239    637.13245     76.89738    88.794136     81.13265    1404.8764  0.029897058  0.029031311  0.034822842  0.093751212  0.023242473  0.024010395   0.02752498  0.074777848 
  927000   -1795509.3    10579.521    590.28898     76.89738    88.794136     81.13265    1404.5155   0.02950021  0.028606496  0.033851593    0.0919583  0.022418299   0.02340241  0.026769113  0.072589821 
  928000   -1795513.8    10564.505    1073.9948     76.89738    88.794136     81.13265     1402.522  0.029560492  0.029181558  0.035473697  0.094215746  0.022869579  0.024140437  0.028822999  0.075833015 
  929000   -1795484.7    10521.501    694.62186     76.89738    88.794136     81.13265    1396.8128  0.030050905  0.029495131  0.033897913  0.093443948  0.023133821  0.024655858  0.026841098  0.074630776 
  930000   -1795476.8    10504.258    636.98916     76.89738    88.794136     81.13265    1394.5238  0.029697266  0.029350045  0.034674982  0.093722293  0.022978111  0.024662014  0.028012764  0.075652889 
  931000   -1795510.4    10537.602    329.14641     76.89738    88.794136     81.13265    1398.9504  0.029501587  0.029445137  0.035043866   0.09399059   0.02240774  0.024267154  0.027815996   0.07449089 
  932000   -1795516.5    10548.635    431.69328     76.89738    88.794136     81.13265    1400.4151  0.029506279  0.029107253  0.034140667  0.092754198  0.022143874  0.024386667  0.027006731  0.073537272 
  933000   -1795529.1    10505.522      662.088     76.89738    88.794136     81.13265    1394.6915  0.029730493  0.029404383  0.034449518  0.093584395  0.022503273  0.024151824  0.027389749  0.074044846 
  934000   -1795484.3    10546.509    457.84367     76.89738    88.794136     81.13265    1400.1329  0.029604523  0.029049181  0.035097448  0.093751152  0.022846877  0.024193605  0.027771301  0.074811782 
  935000   -1795528.2    10609.071    988.43947     76.89738    88.794136     81.13265    1408.4385  0.030043277  0.029719318  0.035237268  0.094999864  0.022923252  0.024560762  0.027814818  0.075298832 
  936000   -1795535.6     10523.82    716.32098     76.89738    88.794136     81.13265    1397.1208  0.029678782  0.029497464  0.033678353  0.092854599  0.023057405  0.024075201  0.026626058  0.073758665 
  937000   -1795484.2    10571.185     609.5387     76.89738    88.794136     81.13265    1403.4088  0.029869224  0.029007929  0.034919807  0.093796961  0.022475669  0.023720482  0.027587382  0.073783533 
  938000   -1795573.6    10574.408    588.13387     76.89738    88.794136     81.13265    1403.8368  0.029030108   0.02945575   0.03392209  0.092407948  0.022353502   0.02412113  0.026843279  0.073317911 
  939000   -1795551.8    10464.573    -7.289216     76.89738    88.794136     81.13265    1389.2552  0.029736599  0.028649766  0.034523355   0.09290972  0.022841225  0.023569545   0.02759494   0.07400571 
  940000   -1795462.6    10566.683    1253.3342     76.89738    88.794136     81.13265    1402.8111  0.029820266  0.029464831  0.034957631  0.094242728  0.022917444  0.024488332  0.027913103  0.075318879 
  941000   -1795497.2     10585.53      812.687     76.89738    88.794136     81.13265    1405.3132  0.029563443  0.029055209  0.034257104  0.092875756    0.0227607  0.023893812  0.027370827  0.074025338 
  942000   -1795451.8    10564.891    1103.6627     76.89738    88.794136     81.13265    1402.5732  0.029453663  0.028678893  0.034920026  0.093052583  0.022497397  0.023829146   0.02815967  0.074486213 
  943000   -1795511.6    10566.646    436.88369     76.89738    88.794136     81.13265    1402.8063  0.028901899   0.02983603  0.035009924  0.093747854  0.022482047  0.024656056  0.027359438  0.074497541 
  944000   -1795490.6    10619.672    510.34204     76.89738    88.794136     81.13265    1409.8459  0.029413619  0.029888215  0.034942486  0.094244319  0.022770735  0.024921313   0.02747176  0.075163808 
  945000   -1795494.4    10571.327     864.8981     76.89738    88.794136     81.13265    1403.4276  0.029393432  0.029535618  0.034199638  0.093128688  0.022783714  0.023714015  0.027529878  0.074027606 
  946000   -1795483.4    10529.967    637.13109     76.89738    88.794136     81.13265    1397.9368  0.029916575  0.029678673  0.034468989  0.094064237  0.023574112  0.024229566  0.027154388  0.074958066 
  947000   -1795564.7    10588.404    548.38333     76.89738    88.794136     81.13265    1405.6948  0.029224378  0.029799319  0.034653221  0.093676918  0.022711348  0.024124889  0.027265744  0.074101981 
  948000   -1795500.4     10542.72    433.32913     76.89738    88.794136     81.13265    1399.6299  0.029301593  0.030157548  0.033607664  0.093066806  0.022763303  0.024206161  0.027274554  0.074244018 
  949000   -1795496.7    10539.799     862.5727     76.89738    88.794136     81.13265    1399.2421     0.028957    0.0297672  0.034974199  0.093698398  0.022080722  0.024156708  0.027611969  0.073849399 
  950000   -1795479.9    10472.119    874.65185     76.89738    88.794136     81.13265     1390.257  0.029112183  0.029739097  0.035098724  0.093950003  0.022302465  0.023997487   0.02767989  0.073979842 
  951000   -1795568.3    10530.998    617.96194     76.89738    88.794136     81.13265    1398.0737  0.029000667  0.029371638  0.034022824   0.09239513  0.022531604  0.024731916  0.026902873  0.074166393 
  952000   -1795564.8    10577.789    534.39877     76.89738    88.794136     81.13265    1404.2856  0.029383282  0.029473286  0.036136132    0.0949927  0.023066512  0.024432397    0.0284692  0.075968109 
  953000   -1795535.5     10554.03    36.519271     76.89738    88.794136     81.13265    1401.1313  0.029631028   0.02908802  0.033772046  0.092491093  0.023330002   0.02395602  0.026942718   0.07422874 
  954000   -1795548.6     10566.84    16.174647     76.89738    88.794136     81.13265     1402.832  0.029518536  0.028663425  0.034239862  0.092421824     0.022995  0.023977252  0.027444555  0.074416807 
  955000   -1795484.7      10531.9    770.72999     76.89738    88.794136     81.13265    1398.1935   0.02917543  0.028709889  0.034744272  0.092629591  0.022475687  0.024103248  0.027872921  0.074451856 
  956000   -1795521.7    10552.782    628.67565     76.89738    88.794136     81.13265    1400.9657  0.029465739   0.02953838  0.034518476  0.093522595  0.022526849  0.024096194  0.027077323  0.073700366 
  957000   -1795545.8     10498.58    504.85572     76.89738    88.794136     81.13265    1393.7699  0.029491937  0.029822055  0.034307482  0.093621475    0.0230964  0.024175937  0.027432023   0.07470436 
  958000   -1795541.9    10567.157    1048.6873     76.89738    88.794136     81.13265    1402.8741  0.028758311   0.02920921  0.035326798  0.093294319  0.022338306  0.023633459  0.027847001  0.073818766 
  959000     -1795471    10596.678    701.54834     76.89738    88.794136     81.13265    1406.7933  0.029696837  0.029562834  0.034106495  0.093366166  0.022807902  0.024091156  0.027302857  0.074201915 
  960000   -1795506.4    10573.701     177.5029     76.89738    88.794136     81.13265    1403.7429  0.029507056  0.029451971  0.034297841  0.093256868  0.022816059  0.024272483  0.027052687  0.074141229 
  961000   -1795483.7    10558.311    601.65948     76.89738    88.794136     81.13265    1401.6998  0.029564214  0.029008988  0.035614827  0.094188029  0.022448634  0.023451589  0.028491811  0.074392033 
  962000   -1795475.5    10553.839    770.36038     76.89738    88.794136     81.13265     1401.106  0.029810578  0.029675251  0.035083157  0.094568986  0.022826398   0.02412596  0.027511439  0.074463797 
  963000   -1795540.6    10545.277    278.69552     76.89738    88.794136     81.13265    1399.9693    0.0297817  0.029733268  0.034078251  0.093593219  0.022750622  0.024270433  0.027125945  0.074146999 
  964000   -1795521.8    10536.257    332.56669     76.89738    88.794136     81.13265    1398.7719  0.029651002  0.029955436  0.036258636  0.095865074  0.023357459  0.024087158  0.029106804  0.076551421 
  965000   -1795530.7    10561.168    236.64517     76.89738    88.794136     81.13265     1402.079   0.02974539  0.030034843  0.034450794  0.094231028  0.022934549  0.024450484  0.027499851  0.074884884 
  966000   -1795516.7    10503.888    316.96907     76.89738    88.794136     81.13265    1394.4746  0.029411133  0.030485062   0.03411777  0.094013964  0.022340044  0.025053567   0.02729813  0.074691741 
  967000   -1795505.7    10515.448    457.06534     76.89738    88.794136     81.13265    1396.0092  0.029602118   0.03039226  0.034776756  0.094771134  0.022431538  0.024445954  0.028119992  0.074997485 
  968000   -1795527.4    10556.279    283.30769     76.89738    88.794136     81.13265    1401.4299  0.029639502  0.030127709  0.033968571  0.093735782  0.022881843  0.024306159  0.026871077   0.07405908 
  969000   -1795488.5    10592.594    767.46754     76.89738    88.794136     81.13265    1406.2511  0.029393809  0.029740489  0.035794806  0.094929103  0.022711611  0.024660867  0.028917254  0.076289732 
  970000   -1795472.8    10501.185    790.74507     76.89738    88.794136     81.13265    1394.1157  0.029772514  0.030735998  0.034922257   0.09543077  0.023213457  0.024709118  0.028032175   0.07595475 
  971000     -1795482    10555.919    1242.8326     76.89738    88.794136     81.13265    1401.3822  0.029026633  0.030399166  0.035394678  0.094820477  0.023533353  0.024326128  0.028805154  0.076664636 
  972000   -1795549.1    10571.959    658.36204     76.89738    88.794136     81.13265    1403.5117  0.028718383  0.029525677  0.034256847  0.092500907  0.022455943  0.024469422  0.027309645  0.074235009 
  973000   -1795504.2    10477.837    594.16475     76.89738    88.794136     81.13265    1391.0161  0.028989554  0.029892484  0.034360009  0.093242047    0.0225406  0.024672644  0.027158865  0.074372109 
  974000   -1795550.2    10488.137    174.82228     76.89738    88.794136     81.13265    1392.3835  0.029160561  0.029599259  0.035051824  0.093811644   0.02290076  0.024623244  0.028595164  0.076119168 
  975000   -1795524.7    10552.097    433.60787     76.89738    88.794136     81.13265    1400.8747  0.029400859  0.029768807  0.034172097  0.093341763  0.023086565  0.024739438  0.026851663  0.074677666 
  976000   -1795587.8    10589.445    343.76897     76.89738    88.794136     81.13265     1405.833   0.02913392  0.029618756   0.03474366  0.093496336  0.022729092  0.024391015  0.027978547  0.075098654 
  977000   -1795544.5     10577.17    816.55021     76.89738    88.794136     81.13265    1404.2034  0.029410119  0.030429279  0.034632756  0.094472154  0.022828564  0.025044091  0.027457889  0.075330545 
  978000   -1795477.4    10523.553    894.81514     76.89738    88.794136     81.13265    1397.0853  0.029160243  0.030290626  0.034797559  0.094248429  0.022654261  0.025149445  0.028007819  0.075811525 
  979000   -1795596.2    10544.704     447.0601     76.89738    88.794136     81.13265    1399.8932  0.029635016   0.02872274  0.034436456  0.092794212  0.023088936  0.023946318  0.027574274  0.074609528 
  980000   -1795524.2    10585.355    786.63891     76.89738    88.794136     81.13265      1405.29  0.029750159  0.028924461  0.033279405  0.091954025  0.023596189  0.024117715  0.026649775  0.074363679 
  981000   -1795552.6    10566.292    24.516476     76.89738    88.794136     81.13265    1402.7592  0.028703043  0.029042024  0.035102089  0.092847156  0.022344962  0.024143742  0.027971642  0.074460346 
  982000   -1795534.1    10557.444    250.27381     76.89738    88.794136     81.13265    1401.5846  0.029156973  0.029457651  0.033943769  0.092558393  0.022598559  0.024555427   0.02722456  0.074378546 
  983000   -1795488.9    10551.643    661.97988     76.89738    88.794136     81.13265    1400.8145   0.03041704  0.029070733  0.034631837   0.09411961  0.023790929  0.024589757  0.027364795  0.075745481 
  984000   -1795512.9    10515.873    631.16136     76.89738    88.794136     81.13265    1396.0657   0.03003944  0.028624169  0.034146721   0.09281033   0.02283287  0.024309056  0.027210215  0.074352142 
  985000   -1795479.1    10484.345    317.88805     76.89738    88.794136     81.13265    1391.8801  0.029573737  0.029138533   0.03506594   0.09377821  0.022539115  0.024085258  0.028032434  0.074656806 
  986000   -1795520.7    10558.607    575.50151     76.89738    88.794136     81.13265     1401.739  0.029521798   0.02835337  0.033704568  0.091579737  0.022669258  0.024193575  0.027132075  0.073994907 
  987000   -1795468.7    10525.096    497.55582     76.89738    88.794136     81.13265    1397.2901   0.02968227  0.029182959  0.034326334  0.093191563  0.022554852  0.024559569  0.027154823  0.074269243 
  988000   -1795501.4    10566.384    763.63726     76.89738    88.794136     81.13265    1402.7715  0.029861438  0.029109051  0.035230446  0.094200935  0.023196019  0.024436627  0.028299516  0.075932162 
  989000   -1795485.8    10545.126    516.61561     76.89738    88.794136     81.13265    1399.9493   0.03013333  0.029602891  0.034367672  0.094103893  0.023186561  0.025015521  0.026779094  0.074981175 
  990000     -1795491    10560.952    650.58555     76.89738    88.794136     81.13265    1402.0504  0.028935445  0.029164389  0.034217638  0.092317472  0.022699508  0.024582549  0.027234053   0.07451611 
  991000   -1795512.4    10522.499    898.89176     76.89738    88.794136     81.13265    1396.9454  0.028965041  0.028872144   0.03477459  0.092611776  0.022444751  0.024067393  0.028009041  0.074521185 
  992000   -1795542.2      10560.3     641.2206     76.89738    88.794136     81.13265    1401.9638  0.029677429  0.029610777   0.03432402  0.093612226  0.022781422   0.02479104  0.027421302  0.074993763 
  993000   -1795553.9      10547.2    736.53779     76.89738    88.794136     81.13265    1400.2246  0.028482844  0.029308496  0.034075344  0.091866684  0.022260191  0.024008431  0.027350257  0.073618879 
  994000   -1795550.3    10494.883     274.4677     76.89738    88.794136     81.13265    1393.2792  0.029271513    0.0291874  0.034742944  0.093201857  0.022673132  0.024127144  0.028049224    0.0748495 
  995000   -1795464.6    10563.788    427.23125     76.89738    88.794136     81.13265    1402.4268  0.028666376  0.029706738  0.034516003  0.092889118  0.023047726  0.025126865  0.027608919  0.075783509 
  996000   -1795483.2    10533.063    881.41345     76.89738    88.794136     81.13265    1398.3478  0.029138254  0.028413175  0.034194695  0.091746124  0.022724624  0.024267195  0.026901472  0.073893291 
  997000   -1795493.3    10493.989    713.70595     76.89738    88.794136     81.13265    1393.1605  0.029170417  0.028907352  0.034721837  0.092799605  0.022904724  0.024074829  0.028041357   0.07502091 
  998000   -1795495.5     10545.77    508.80231     76.89738    88.794136     81.13265    1400.0348  0.029020701  0.028929582  0.034341017    0.0922913  0.022526958  0.024007276  0.027436547  0.073970781 
  999000   -1795550.6    10491.728    -33.16195     76.89738    88.794136     81.13265    1392.8603  0.028682969  0.029323717  0.034280813  0.092287499  0.022006927  0.023805027  0.027411006   0.07322296 
 1000000   -1795531.3    10511.862    361.18227     76.89738    88.794136     81.13265    1395.5332  0.028150045   0.02914674  0.034780144   0.09207693  0.022316787  0.024282918  0.027785019  0.074384724 
Loop time of 221298 on 7 procs for 1000000 steps with 58275 atoms

Pair  time (%) = 178268 (80.5556)
Kspce time (%) = 39099.8 (17.6684)
Neigh time (%) = 2133.28 (0.963986)
Comm  time (%) = 1281.53 (0.579094)
Outpt time (%) = 0.417577 (0.000188694)
Other time (%) = 515.173 (0.232796)

Nlocal:    8325 ave 8450 max 8157 min
Histogram: 1 2 0 0 0 0 0 1 0 3
Nghost:    32482.4 ave 32892 max 32172 min
Histogram: 3 0 1 0 0 0 0 1 1 1
Neighs:    3.21526e+06 ave 3.26178e+06 max 3.15185e+06 min
Histogram: 1 2 0 0 0 0 0 0 1 3

Total # of neighbors = 22506849
Ave neighs/atom = 386.218
Neighbor list builds = 16854
Dangerous builds = 0
