

variable      mytemp equal  2000

# -------------------- FORCE FIELDS ----------------------
pair_style buck/coul/long 10.0 10.0

read_data	NPT_relaxed_2000.data
  orthogonal box = (0.0462487 0.0534038 0.048796) to (77.2548 89.2068 81.5097)
  1 by 5 by 3 MPI processor grid
  reading atoms ...
  58365 atoms
  reading velocities ...
  58365 velocities

pair_coeff    * * 1e-30 1e-30 0.0
pair_coeff    1 2 1204.18 0.3165   0.0
pair_coeff    1 1 9547.96 0.21916  32.0

kspace_style    pppm 0.0001

## Define group
group oxygen type 1
35019 atoms in group oxygen
group chromium type 2
23346 atoms in group chromium


## --------------------- NVT  --------------------
compute allmsd all displace/atom

#dump          2 all custom 25000  dump/dump id type xu yu zu c_allmsd[1] c_allmsd[2] c_allmsd[3] c_allmsd[4]
#dump          1 all xyz 25000 xyz/all.xyz
#dump_modify   1 element O Cr



compute   Omsd oxygen msd com yes
compute   Crmsd chromium msd com yes
variable  OMSDX equal "c_Omsd[1]"
variable  OMSDY equal "c_Omsd[2]"
variable  OMSDZ equal "c_Omsd[3]"
variable  OMSDAll equal "c_Omsd[4]"

variable  CrMSDX equal "c_Crmsd[1]"
variable  CrMSDY equal "c_Crmsd[2]"
variable  CrMSDZ equal "c_Crmsd[3]"
variable  CrMSDAll equal "c_Crmsd[4]"

thermo          1000
thermo_style    custom step pe ke press lx ly lz temp c_Omsd[1]  c_Omsd[2]  c_Omsd[3]  c_Omsd[4]  c_Crmsd[1]  c_Crmsd[2]  c_Crmsd[3]  c_Crmsd[4]


fix          1 all print 100 "${OMSDX}   ${OMSDY}   ${OMSDZ}  ${OMSDAll}  ${CrMSDX}   ${CrMSDY}   ${CrMSDZ}  ${CrMSDAll}" file MSD2000.data screen no
fix          3 all nvt temp ${mytemp} ${mytemp} 0.01
fix          3 all nvt temp 2000 ${mytemp} 0.01
fix          3 all nvt temp 2000 2000 0.01

run      1000000
PPPM initialization ...
  G vector (1/distance) = 0.308788
  grid = 72 80 75
  stencil order = 5
  estimated absolute RMS force accuracy = 0.00179588
  estimated relative force accuracy = 0.000124717
  using double precision FFTs
  3d grid and FFT values/proc = 58144 28800
Memory usage per processor = 12.6291 Mbytes
Step PotEng KinEng Press Lx Ly Lz Temp Omsd[1] Omsd[2] Omsd[3] Omsd[4] Crmsd[1] Crmsd[2] Crmsd[3] Crmsd[4] 
       0   -1793333.7    15067.115    1008.8867    77.208503    89.153392    81.460908    1997.1947            0 1.3130228e-28 5.0983045e-29 1.8228533e-28            0            0 5.1001787e-29 5.1001787e-29 
    1000   -1793284.1    15110.837    895.50466    77.208503    89.153392    81.460908    2002.9902  0.038287251  0.041543325   0.05266344   0.13249402  0.031440981  0.032627337  0.042516883    0.1065852 
    2000   -1793325.5    15069.872    989.01324    77.208503    89.153392    81.460908    1997.5602  0.039877281  0.040241395  0.052408417   0.13252709  0.031713268   0.03059628  0.040329454     0.102639 
    3000   -1793242.7    15084.496    869.01076    77.208503    89.153392    81.460908    1999.4986  0.039774829  0.042538185  0.055154243   0.13746726  0.030767288  0.031618436  0.041536868   0.10392259 
    4000   -1793204.3    15046.412    1965.6639    77.208503    89.153392    81.460908    1994.4504  0.040443208  0.041863659  0.054478034    0.1367849  0.031400197  0.031157084  0.043066325   0.10562361 
    5000   -1793180.7    15081.001    2081.6526    77.208503    89.153392    81.460908    1999.0354  0.041413108  0.043112794  0.056921669   0.14144757  0.031189025  0.032660404  0.045153186   0.10900262 
    6000   -1793272.9     15084.17    1346.6974    77.208503    89.153392    81.460908    1999.4554   0.04123817  0.042002507  0.055658403   0.13889908  0.031627966  0.031274139  0.044237811   0.10713992 
    7000   -1793167.4      15087.1    2050.8358    77.208503    89.153392    81.460908    1999.8439  0.041053749  0.041899259  0.055808177   0.13876118  0.032070869  0.030624131  0.043019312   0.10571431 
    8000   -1793221.1    15098.916    1282.1184    77.208503    89.153392    81.460908    2001.4101  0.040373204  0.044788165  0.056759826    0.1419212  0.031109421  0.032669117  0.043440936   0.10721947 
    9000   -1793269.2    15013.086    1061.9498    77.208503    89.153392    81.460908    1990.0331  0.042163508  0.043127236  0.057343274   0.14263402  0.031724168  0.031045524  0.042825465   0.10559516 
   10000   -1793262.9    15037.386    1223.5637    77.208503    89.153392    81.460908    1993.2541  0.042520155  0.045654991  0.057952158    0.1461273  0.030953949  0.032098051  0.043582628   0.10663463 
   11000     -1793280    15061.019     943.0069    77.208503    89.153392    81.460908    1996.3867  0.042998033  0.043312786  0.056366536   0.14267735   0.03194995  0.031607188  0.043271024   0.10682816 
   12000   -1793255.2    15065.174    1684.8717    77.208503    89.153392    81.460908    1996.9375  0.042905234  0.044924966  0.059975384   0.14780558  0.031482406  0.031292563  0.046435365   0.10921033 
   13000     -1793293    15026.645    1297.3823    77.208503    89.153392    81.460908    1991.8303  0.043636596  0.043971728  0.059795723   0.14740405  0.030507519  0.031129939  0.046574221   0.10821168 
   14000   -1793242.3    15091.141    1470.4502    77.208503    89.153392    81.460908    2000.3795   0.04454867  0.044966506  0.057911709   0.14742688  0.031703683  0.031251506  0.043659211    0.1066144 
   15000   -1793292.8    15009.781    537.16858    77.208503    89.153392    81.460908    1989.5949  0.044663267  0.047714666  0.059736916   0.15211485   0.03131614  0.032915456  0.044889994   0.10912159 
   16000   -1793237.3    15115.525    1481.2292    77.208503    89.153392    81.460908    2003.6116  0.045005109  0.045525102  0.060751523   0.15128173  0.030897403  0.031020223  0.045246495   0.10716412 
   17000   -1793219.7    15117.958    1898.9959    77.208503    89.153392    81.460908    2003.9342  0.046383728  0.048536526  0.063167535   0.15808779  0.031435069  0.032999267  0.046024441   0.11045878 
   18000   -1793228.3    15139.997    1606.6095    77.208503    89.153392    81.460908    2006.8555  0.046763748  0.047166506  0.063945656   0.15787591  0.031713998  0.031528583  0.045581586   0.10882417 
   19000     -1793200    15132.678    1613.0114    77.208503    89.153392    81.460908    2005.8853  0.046710153  0.046813876  0.064273432   0.15779746  0.031620158  0.031060085  0.044819155    0.1074994 
   20000   -1793256.5    15053.199    1148.0739    77.208503    89.153392    81.460908    1995.3501  0.047761597  0.047298511  0.063450651   0.15851076  0.032172407  0.030975022  0.045068978   0.10821641 
   21000   -1793250.3    15071.931    1783.4874    77.208503    89.153392    81.460908    1997.8331  0.047238885  0.047293579  0.065114601   0.15964707  0.031256529    0.0314823  0.045553266    0.1082921 
   22000   -1793245.2    15153.834    1825.9608    77.208503    89.153392    81.460908    2008.6896  0.049549615  0.048192176  0.063606135   0.16134793  0.032428691  0.032088315  0.045072052   0.10958906 
   23000   -1793347.3    15095.673    1239.5096    77.208503    89.153392    81.460908    2000.9803  0.048164408  0.047561166  0.067006214   0.16273179  0.031498508  0.030883789  0.047015841   0.10939814 
   24000     -1793172    15118.368    1819.2718    77.208503    89.153392    81.460908    2003.9885  0.048689339  0.050280662  0.065005484   0.16397549  0.031239824  0.032274946  0.045469203   0.10898397 
   25000   -1793231.6    15098.434    1843.6331    77.208503    89.153392    81.460908    2001.3461  0.050655015  0.049821704   0.06758841   0.16806513  0.031854444   0.03125869   0.04658543   0.10969856 
   26000   -1793156.2    15131.307    2172.5243    77.208503    89.153392    81.460908    2005.7036  0.051244775  0.050589081  0.067489227   0.16932308   0.03124983  0.031643723  0.046150805   0.10904436 
   27000   -1793245.9    15167.514    1481.4472    77.208503    89.153392    81.460908     2010.503  0.052601534  0.050619435  0.066917972   0.17013894  0.031947593  0.031501696  0.046793571   0.11024286 
   28000   -1793268.6    15047.239    1858.3318    77.208503    89.153392    81.460908    1994.5601  0.052676201  0.050331606  0.067069739   0.17007755  0.031589803  0.030870133  0.046162512   0.10862245 
   29000   -1793255.4    15110.094    1337.3555    77.208503    89.153392    81.460908    2002.8918  0.050953537  0.049791045  0.068329072   0.16907365  0.031623168  0.030781926  0.046716629   0.10912172 
   30000   -1793296.7    15103.719    1153.3168    77.208503    89.153392    81.460908    2002.0468  0.052163481  0.050993419  0.068272566   0.17142947  0.031761248  0.031134382  0.047265434   0.11016106 
   31000   -1793294.1    15096.347    1619.7972    77.208503    89.153392    81.460908    2001.0696  0.051213522  0.051914072  0.068699322   0.17182692  0.031005306  0.032357107  0.046183303   0.10954572 
   32000   -1793176.9     15210.45    2264.0924    77.208503    89.153392    81.460908    2016.1942  0.053526523  0.051779233  0.069413139    0.1747189   0.03223631  0.031111181  0.046037734   0.10938523 
   33000   -1793225.5     15018.13    1954.1259    77.208503    89.153392    81.460908    1990.7016  0.052219476  0.052178968  0.070193134   0.17459158  0.031268957  0.031043459  0.046380395   0.10869281 
   34000   -1793257.5      15093.8    1346.4114    77.208503    89.153392    81.460908    2000.7319  0.053404611  0.052547445  0.071824644    0.1777767  0.031254757  0.031449119  0.045423016   0.10812689 
   35000   -1793252.7    15019.066    1525.4571    77.208503    89.153392    81.460908    1990.8257  0.053965764  0.053410513  0.070770331   0.17814661  0.031771862  0.031634126  0.045770414    0.1091764 
   36000   -1793254.8    15117.797    1253.7576    77.208503    89.153392    81.460908    2003.9128   0.05545972  0.053943052  0.073117138   0.18251991  0.031909567  0.031660891  0.046865103   0.11043556 
   37000   -1793316.8    15143.723    1614.9368    77.208503    89.153392    81.460908    2007.3494  0.056006148  0.052997134  0.073168421    0.1821717  0.031204329  0.030604865   0.04661348   0.10842267 
   38000   -1793291.3    15086.481    1323.3768    77.208503    89.153392    81.460908    1999.7617  0.056800296  0.055649827  0.072409045   0.18485917  0.032019304  0.032560355  0.045536952   0.11011661 
   39000   -1793226.3    15159.511    1920.4578    77.208503    89.153392    81.460908    2009.4422  0.058122162  0.054889875  0.075316832   0.18832887  0.031438104  0.031035208  0.049429984    0.1119033 
   40000   -1793212.4    15090.629    1770.8776    77.208503    89.153392    81.460908    2000.3115  0.057862295  0.057052873  0.076407729    0.1913229  0.032241833  0.033248603  0.050196179   0.11568662 
   41000   -1793248.3    15056.862    939.78549    77.208503    89.153392    81.460908    1995.8356  0.057897675  0.056689775  0.075997858   0.19058531  0.031463831   0.03267969  0.051113777    0.1152573 
   42000   -1793197.7    15099.927    2048.9065    77.208503    89.153392    81.460908    2001.5441  0.057791586  0.056718525  0.077328028   0.19183814   0.03097689  0.032238532  0.051044742   0.11426016 
   43000   -1793303.6     15114.83    1607.8139    77.208503    89.153392    81.460908    2003.5195  0.058819535  0.056419833  0.075641845   0.19088121  0.031488529  0.030926457  0.048097353   0.11051234 
   44000   -1793257.3    15030.134    623.34665    77.208503    89.153392    81.460908    1992.2928  0.058896074    0.0580144  0.078356679   0.19526715  0.031770754  0.031494772  0.050447956   0.11371348 
   45000   -1793183.4    15103.873    1262.6987    77.208503    89.153392    81.460908    2002.0672  0.059271872  0.058590421  0.078147937   0.19601023  0.031715679  0.031907273  0.049093138   0.11271609 
   46000   -1793252.3    15107.365    1942.2124    77.208503    89.153392    81.460908      2002.53  0.060613137   0.05704111  0.077669072   0.19532332  0.031452907  0.030695474  0.050044505   0.11219289 
   47000   -1793230.6    15072.975    1407.7968    77.208503    89.153392    81.460908    1997.9715  0.059967905  0.059593664  0.079102381   0.19866395  0.031669476  0.032390348  0.050732259   0.11479208 
   48000   -1793211.1    15077.116    1634.3669    77.208503    89.153392    81.460908    1998.5204  0.059486475  0.057959298  0.078947699   0.19639347  0.031795782  0.031949585  0.050383561   0.11412893 
   49000   -1793380.6     15070.71    185.28712    77.208503    89.153392    81.460908    1997.6713  0.059510323  0.059068282  0.078529024   0.19710763  0.030942341  0.031520084   0.05105741   0.11351983 
   50000   -1793232.3     15139.48    1799.1079    77.208503    89.153392    81.460908     2006.787  0.060565069  0.060127445  0.080129376   0.20082189  0.032582562  0.032708181  0.050549164   0.11583991 
   51000   -1793249.5    15080.343    1439.9335    77.208503    89.153392    81.460908    1998.9482  0.059029325  0.059087062  0.079419228   0.19753561  0.031392225  0.032400361  0.050129683   0.11392227 
   52000   -1793267.6    15107.028    1719.3388    77.208503    89.153392    81.460908    2002.4854    0.0591486    0.0594139  0.079197503      0.19776  0.031516337  0.032315759  0.049708065   0.11354016 
   53000   -1793251.8    15132.275    862.35434    77.208503    89.153392    81.460908    2005.8319  0.061333003  0.058516779  0.079858406   0.19970819  0.031926348  0.031188245  0.049032206    0.1121468 
   54000   -1793222.1    15037.779    774.24347    77.208503    89.153392    81.460908    1993.3062  0.061283845   0.06074185  0.080243608    0.2022693   0.03232961   0.03294991  0.049512315   0.11479183 
   55000   -1793310.3    15118.515    1012.8122    77.208503    89.153392    81.460908    2004.0079  0.061800361  0.059776444  0.081407162   0.20298397  0.033599287   0.03213154  0.051323981   0.11705481 
   56000   -1793274.2    15095.994    1403.8894    77.208503    89.153392    81.460908    2001.0227  0.061991175  0.061328793  0.082209918   0.20552989  0.031376172  0.032478691  0.050174037    0.1140289 
   57000   -1793245.7     15111.53    1425.1238    77.208503    89.153392    81.460908     2003.082  0.062683877  0.061971077  0.081115454   0.20577041  0.031480052   0.03278748  0.050529741   0.11479727 
   58000   -1793202.9    15102.177    1951.8244    77.208503    89.153392    81.460908    2001.8423  0.063366186  0.062590003  0.082387695   0.20834388  0.032013331  0.032982545  0.051025403   0.11602128 
   59000     -1793168    15108.828     1517.118    77.208503    89.153392    81.460908    2002.7239  0.063492455   0.06318268  0.083964389   0.21063952  0.032589158  0.032379697   0.05081949   0.11578834 
   60000   -1793272.6    15117.829    1221.8196    77.208503    89.153392    81.460908    2003.9171  0.063644706  0.062600255  0.085605427   0.21185039  0.031656358  0.032126771  0.053071166    0.1168543 
   61000   -1793133.2    15076.657    2085.3197    77.208503    89.153392    81.460908    1998.4596  0.064519635  0.062333806  0.087089068   0.21394251  0.032013805  0.031852103  0.053610612   0.11747652 
   62000   -1793257.6    15036.519     1089.784    77.208503    89.153392    81.460908    1993.1391  0.066288756  0.063136002  0.085338365   0.21476312  0.032383085  0.032360349  0.052610008   0.11735344 
   63000   -1793269.1    14995.081    1445.4645    77.208503    89.153392    81.460908    1987.6464  0.064462022  0.064468812  0.085975989   0.21490682  0.031195901  0.032506741  0.054299191   0.11800183 
   64000   -1793171.5    15140.712    1713.9814    77.208503    89.153392    81.460908    2006.9503  0.065359305   0.06529966  0.087084595   0.21774356  0.031020905  0.032348538  0.054513223   0.11788267 
   65000   -1793254.1    15091.155     1399.352    77.208503    89.153392    81.460908    2000.3813  0.066570435  0.065371606  0.086294106   0.21823615  0.031858201   0.03246949  0.051801652   0.11612934 
   66000   -1793223.7    15093.765    2012.6832    77.208503    89.153392    81.460908    2000.7273  0.066669263  0.066871618  0.088406432   0.22194731  0.031610708  0.033458701  0.053697827   0.11876724 
   67000   -1793196.7    15184.588    1784.4917    77.208503    89.153392    81.460908    2012.7662  0.067392812  0.067582972  0.088695626   0.22367141   0.03222932  0.031970565  0.052288642   0.11648853 
   68000   -1793198.6    15067.721    2030.3517    77.208503    89.153392    81.460908    1997.2751  0.066841805  0.067411593  0.089738686   0.22399208  0.031841676  0.032555181  0.054236412   0.11863327 
   69000     -1793247    15061.632    1597.6686    77.208503    89.153392    81.460908     1996.468  0.067314853  0.068678908  0.089377108   0.22537087  0.032226171  0.033285719  0.051646913    0.1171588 
   70000   -1793220.3    15100.722    2067.8505    77.208503    89.153392    81.460908    2001.6494  0.069006184  0.069494309  0.091729135   0.23022963  0.033396727  0.032623227  0.052221095   0.11824105 
   71000   -1793210.1    15056.032    1526.4146    77.208503    89.153392    81.460908    1995.7257  0.068213147   0.06879444  0.089968289   0.22697588  0.031731824   0.03278708   0.05282603   0.11734493 
   72000   -1793199.8    15123.363    1833.3735    77.208503    89.153392    81.460908    2004.6507  0.068793345  0.069034063  0.092468289    0.2302957  0.033221028  0.031867828  0.053234623   0.11832348 
   73000   -1793265.7    15051.003    1388.7073    77.208503    89.153392    81.460908    1995.0591  0.066916889    0.0696566  0.093160338   0.22973383  0.032090503  0.032741028  0.053839063   0.11867059 
   74000   -1793330.1    15065.879    1591.1725    77.208503    89.153392    81.460908    1997.0309  0.068034636   0.06900364   0.09272338   0.22976166  0.032134497  0.031965551  0.052795481   0.11689553 
   75000   -1793235.8    15079.714    2002.6633    77.208503    89.153392    81.460908    1998.8648  0.068940282  0.070180701  0.094770962   0.23389195  0.032015189  0.033092421  0.054377419   0.11948503 
   76000   -1793216.6    15062.936    2161.1864    77.208503    89.153392    81.460908    1996.6408  0.070161843  0.070634747  0.094495066   0.23529166  0.032133968  0.032866024  0.053591445   0.11859144 
   77000   -1793078.6    15118.713    2205.5861    77.208503    89.153392    81.460908    2004.0342  0.070961495  0.071229711  0.093764506   0.23595571  0.031846698  0.032800622  0.053587746   0.11823507 
   78000     -1793125    14962.758    2725.5296    77.208503    89.153392    81.460908    1983.3619  0.071125117  0.071206013  0.094856959   0.23718809  0.032381122   0.03310972  0.054802869   0.12029371 
   79000   -1793353.7    15050.933    960.60441    77.208503    89.153392    81.460908    1995.0498  0.071531615  0.072463471  0.094650275   0.23864536  0.031971595  0.033374369  0.055208087   0.12055405 
   80000   -1793215.7    15084.457    1830.0095    77.208503    89.153392    81.460908    1999.4935  0.071180905  0.072283581  0.095199863   0.23866435  0.031927702  0.032363275  0.053869192   0.11816017 
   81000   -1793173.7    15086.596    1724.6619    77.208503    89.153392    81.460908     1999.777  0.072266495  0.073220187  0.096667627   0.24215431   0.03294583   0.03307181  0.054595334   0.12061297 
   82000     -1793246    15064.234    1034.7525    77.208503    89.153392    81.460908    1996.8128  0.072315857  0.073731034  0.096747511    0.2427944  0.032128412   0.03262493  0.054184315   0.11893766 
   83000     -1793270    15072.512    1304.2457    77.208503    89.153392    81.460908    1997.9101  0.073245099  0.074270497  0.097513254   0.24502885  0.031886678  0.032323174  0.054744251    0.1189541 
   84000     -1793316    15050.792    1809.0183    77.208503    89.153392    81.460908    1995.0311  0.073881612  0.073262748  0.099208966   0.24635333  0.031501614  0.032226859  0.056585655   0.12031413 
   85000   -1793226.4    15144.324    1551.6912    77.208503    89.153392    81.460908    2007.4291  0.073265537  0.074782106  0.097496205   0.24554385  0.032660629  0.033141371   0.05537022   0.12117222 
   86000   -1793247.4    15029.668    1781.4027    77.208503    89.153392    81.460908     1992.231  0.073281687   0.07440564   0.09709502   0.24478235  0.032944399  0.032176868  0.054232546   0.11935381 
   87000   -1793166.1    15108.014     2040.166    77.208503    89.153392    81.460908     2002.616  0.074271027  0.073941245   0.10033686   0.24854913  0.031874732  0.031953025  0.058322546    0.1221503 
   88000   -1793249.6    14993.186    1791.7928    77.208503    89.153392    81.460908    1987.3952  0.075607888  0.074969499   0.10019674   0.25077413  0.032674496  0.032825581   0.05804337   0.12354345 
   89000   -1793151.8    15178.512    2633.4402    77.208503    89.153392    81.460908    2011.9608  0.073916736  0.075849806  0.098958683   0.24872522  0.031936481  0.033155656  0.056857135   0.12194927 
   90000   -1793147.7    15174.899    2273.5197    77.208503    89.153392    81.460908    2011.4819  0.075015041  0.074578914   0.10164737   0.25124132  0.031729589  0.032510468   0.05693878   0.12117884 
   91000   -1793266.2    15028.495    961.43377    77.208503    89.153392    81.460908    1992.0756  0.075571526  0.075808001   0.10130349   0.25268302  0.032155556   0.03275217  0.056559474    0.1214672 
   92000   -1793322.6    15081.311    1173.1959    77.208503    89.153392    81.460908    1999.0765  0.076753198  0.076916848   0.10256866    0.2562387   0.03183164  0.031937354  0.055894407    0.1196634 
   93000   -1793275.8    15102.291    1377.5033    77.208503    89.153392    81.460908    2001.8575  0.077717017  0.076997295   0.10199326   0.25670757  0.032654854  0.033023667  0.054808655   0.12048718 
   94000   -1793301.7    15094.722    1227.2282    77.208503    89.153392    81.460908    2000.8542  0.078808784   0.07730862   0.10272986   0.25884727  0.032055713  0.032989492  0.057071656   0.12211686 
   95000   -1793304.1    15169.239    1379.4693    77.208503    89.153392    81.460908    2010.7316  0.077933444  0.077326639   0.10342825   0.25868833  0.032583115  0.031851939  0.056324848    0.1207599 
   96000   -1793308.8     15021.15    1313.7113    77.208503    89.153392    81.460908     1991.102  0.078250745  0.079001115   0.10446501   0.26171687  0.031538821  0.032837221  0.055849608   0.12022565 
   97000   -1793241.4    15134.296    1415.3683    77.208503    89.153392    81.460908    2006.0997  0.078147326  0.078791003   0.10191997    0.2588583  0.032199317  0.034088426  0.055783166   0.12207091 
   98000   -1793263.8    15051.837    830.30364    77.208503    89.153392    81.460908    1995.1696  0.078113046  0.079227069   0.10357133   0.26091144  0.031737193  0.033243412  0.054613361   0.11959397 
   99000   -1793267.3    15105.293    1487.9329    77.208503    89.153392    81.460908    2002.2554  0.078431577  0.078974482    0.1047683   0.26217435  0.031730268  0.031789865  0.055008803   0.11852894 
  100000   -1793289.9    15046.176    1386.4318    77.208503    89.153392    81.460908    1994.4193  0.080749289  0.081374509   0.10506755   0.26719135  0.033736996  0.033627354  0.055313437   0.12267779 
  101000   -1793218.9    15007.991    1714.0589    77.208503    89.153392    81.460908    1989.3577  0.080628061  0.080321647   0.10575541   0.26670512  0.032533968  0.031988702  0.057235264   0.12175793 
  102000   -1793266.8    15158.399    991.28496    77.208503    89.153392    81.460908    2009.2948  0.079613778  0.079580182   0.10466726   0.26386122  0.031809704   0.03178844   0.05489869   0.11849683 
  103000   -1793247.6    15110.406    1310.5854    77.208503    89.153392    81.460908    2002.9331  0.081134329  0.081606625   0.10801145    0.2707524  0.033208531  0.032986194  0.057941835   0.12413656 
  104000   -1793191.1    14917.762     1669.302    77.208503    89.153392    81.460908    1977.3975  0.079108745  0.081061522   0.10645529   0.26662556  0.031332374   0.03226311  0.055207028   0.11880251 
  105000   -1793239.3    15146.653    1593.6464    77.208503    89.153392    81.460908    2007.7377  0.080824468   0.08160315   0.10933789   0.27176551  0.032101436  0.033438191   0.05685994   0.12239957 
  106000   -1793172.2    15176.555    2374.8318    77.208503    89.153392    81.460908    2011.7014  0.081438604   0.08178753   0.10900582   0.27223195  0.032673666  0.031630823  0.056451731   0.12075622 
  107000     -1793270    15093.967     642.1549    77.208503    89.153392    81.460908    2000.7541  0.080827716  0.082033912   0.10877108   0.27163271  0.033325053  0.031964987  0.055814266   0.12110431 
  108000   -1793259.6    15052.594     908.9663    77.208503    89.153392    81.460908    1995.2699  0.080447867  0.083375927   0.10900184   0.27282564  0.031648729  0.032728313  0.055540245   0.11991729 
  109000   -1793256.1     15077.59    1144.3367    77.208503    89.153392    81.460908    1998.5832   0.08204707  0.083147081   0.10877926   0.27397341  0.032769117  0.032341223  0.054924626   0.12003497 
  110000   -1793156.1    15137.952    2098.8321    77.208503    89.153392    81.460908    2006.5844  0.081260338   0.08364616   0.11112216   0.27602865   0.03251882  0.032706546  0.056415443   0.12164081 
  111000   -1793277.8    15114.628    1590.0813    77.208503    89.153392    81.460908    2003.4927  0.081000134  0.083085697   0.10989122   0.27397705  0.032090925  0.032102166  0.054163188   0.11835628 
  112000   -1793281.5    15113.384    1280.3915    77.208503    89.153392    81.460908    2003.3279  0.081424238  0.085409122   0.11081251   0.27764587  0.032062461  0.033912367  0.055299111   0.12127394 
  113000   -1793317.1    15179.869    1578.0237    77.208503    89.153392    81.460908    2012.1407  0.081938072  0.083519579   0.10969365    0.2751513  0.031304573  0.032072709  0.055108261   0.11848554 
  114000   -1793271.8     15152.32    1749.9726    77.208503    89.153392    81.460908     2008.489  0.081292935  0.084594751   0.11048109   0.27636878  0.030975593   0.03215907  0.055492223   0.11862689 
  115000   -1793174.4    15089.948    1789.2187    77.208503    89.153392    81.460908    2000.2213  0.082190572  0.085621574   0.11285242   0.28066456  0.031962199  0.033018277  0.057968933   0.12294941 
  116000   -1793200.8    15101.119    1979.2456    77.208503    89.153392    81.460908    2001.7021  0.082609643  0.085381339    0.1119542   0.27994518  0.031413617   0.03211072   0.05564894   0.11917328 
  117000   -1793285.1    15029.481    1161.2651    77.208503    89.153392    81.460908    1992.2062  0.083567824  0.087091548   0.11372975   0.28438912  0.031606647  0.033058191   0.05534123   0.12000607 
  118000   -1793281.9     15066.39    979.77169    77.208503    89.153392    81.460908    1997.0987  0.083253197  0.085783721   0.11176963   0.28080655  0.031458521  0.032573281   0.05444355   0.11847535 
  119000   -1793250.3    15047.205     2045.503    77.208503    89.153392    81.460908    1994.5557   0.08344071  0.086611199   0.11550054   0.28555245  0.032117397  0.032548321  0.056263743   0.12092946 
  120000   -1793307.6    15039.549    851.83412    77.208503    89.153392    81.460908    1993.5408  0.084159583  0.086959068   0.11260604    0.2837247  0.031535562  0.031934961   0.05372663   0.11719715 
  121000   -1793277.7    15084.505    767.91642    77.208503    89.153392    81.460908    1999.4998  0.085448053  0.087298911   0.11483763   0.28758459  0.031868379  0.033452505  0.058543604   0.12386449 
  122000   -1793247.4    15132.798    1963.7951    77.208503    89.153392    81.460908    2005.9012  0.084739713  0.086477635   0.11516561   0.28638296  0.032147993  0.032300532  0.055365591   0.11981412 
  123000   -1793285.7    15021.152    1244.8706    77.208503    89.153392    81.460908    1991.1021  0.085591247  0.087715339   0.11533659   0.28864318  0.031617752   0.03216266  0.056539998   0.12032041 
  124000   -1793243.1    15008.088    1334.4222    77.208503    89.153392    81.460908    1989.3705  0.086697589  0.088680552   0.11363901   0.28901715  0.033058204  0.033345242  0.054577006   0.12098045 
  125000   -1793326.4    15084.243    1144.4043    77.208503    89.153392    81.460908    1999.4652   0.08598433  0.087039934   0.11684808   0.28987234  0.032211474  0.032035996  0.057011162   0.12125863 
  126000   -1793244.2    15141.374    1637.2582    77.208503    89.153392    81.460908     2007.038   0.08787446  0.088727895   0.11704057   0.29364292  0.033210164  0.032751589  0.057065755   0.12302751 
  127000   -1793220.1    15084.299    1385.2364    77.208503    89.153392    81.460908    1999.4726  0.087903127   0.08823187   0.11765319   0.29378818  0.033096561  0.032409114  0.056611445   0.12211712 
  128000   -1793158.1    15084.165    1679.8924    77.208503    89.153392    81.460908    1999.4548   0.08737298  0.089403828   0.12011197   0.29688878  0.032044892  0.032574826  0.058154273   0.12277399 
  129000   -1793287.4    15078.756    225.58038    77.208503    89.153392    81.460908    1998.7378  0.087411353  0.088581085   0.11760993   0.29360237  0.031527226  0.032028164  0.056046903   0.11960229 
  130000   -1793218.4     15078.49    1846.9855    77.208503    89.153392    81.460908    1998.7026  0.087860563     0.089157   0.11923971   0.29625727  0.032645136  0.033057998  0.056703661   0.12240679 
  131000   -1793271.3     15054.33    1151.8831    77.208503    89.153392    81.460908    1995.5001  0.087576254  0.089329852   0.11722178   0.29412789  0.031989101  0.032898464  0.055989682   0.12087725 
  132000     -1793184    15072.779    2568.7196    77.208503    89.153392    81.460908    1997.9456  0.088239105  0.089612946   0.11895863   0.29681069  0.032316012  0.032757479  0.055788198   0.12086169 
  133000   -1793249.3    15101.285    1225.9185    77.208503    89.153392    81.460908    2001.7241  0.088903659  0.089660448   0.11996487   0.29852897  0.031753759  0.032131902    0.0543862   0.11827186 
  134000   -1793235.8    15000.739    1773.0963    77.208503    89.153392    81.460908    1988.3965   0.08983226  0.089569852   0.12038235   0.29978447  0.031948192   0.03287022  0.055206918   0.12002533 
  135000   -1793354.5    15086.193    1321.3869    77.208503    89.153392    81.460908    1999.7236  0.090783409  0.091811994   0.12178212   0.30437752  0.032587035  0.033504515  0.057290876   0.12338243 
  136000   -1793214.5    15131.922    2347.2268    77.208503    89.153392    81.460908    2005.7851  0.090142754   0.09137732   0.12279838   0.30431845  0.032880478  0.032789574   0.05743078   0.12310083 
  137000   -1793196.3     15093.72    1775.9431    77.208503    89.153392    81.460908    2000.7213  0.090615712  0.092930232    0.1226969   0.30624285  0.032644414   0.03257561  0.056451872    0.1216719 
  138000     -1793316    15122.376    1473.4892    77.208503    89.153392    81.460908    2004.5197  0.089859036  0.093162345   0.12388973   0.30691112  0.032157028   0.03329134  0.055756136    0.1212045 
  139000   -1793215.1    15128.415    1900.3145    77.208503    89.153392    81.460908    2005.3203  0.090208739  0.092370648   0.12295639   0.30553578   0.03178205  0.032952011  0.054324517   0.11905858 
  140000     -1793255    15053.791    1037.9221    77.208503    89.153392    81.460908    1995.4287    0.0911318  0.093737508   0.12330468   0.30817399  0.032012807  0.033702979    0.0545923   0.12030809 
  141000   -1793237.9    15092.081    1613.3121    77.208503    89.153392    81.460908     2000.504  0.091144573  0.093584162   0.12709666    0.3118254  0.031829149  0.032576966  0.056671954   0.12107807 
  142000     -1793153    15142.694    2037.6131    77.208503    89.153392    81.460908     2007.213  0.092503655  0.094412759    0.1244699   0.31138631  0.032586296  0.032835143    0.0540039   0.11942534 
  143000   -1793277.2    15068.159    1737.3156    77.208503    89.153392    81.460908    1997.3331  0.093595897  0.094020171    0.1263572   0.31397327  0.033094286   0.03302902  0.054547128   0.12067043 
  144000   -1793353.2    15055.389    952.48228    77.208503    89.153392    81.460908    1995.6405  0.091704631  0.093995751   0.12819457   0.31389495  0.031277111   0.03190153  0.055635235   0.11881388 
  145000   -1793326.9    15035.997    1342.7251    77.208503    89.153392    81.460908      1993.07  0.093326091  0.093459942   0.12794598   0.31473202  0.031743642  0.032456166  0.055722585   0.11992239 
  146000     -1793250    15054.142    1034.6714    77.208503    89.153392    81.460908    1995.4752  0.093519001  0.092795582    0.1295832   0.31589778  0.032592058  0.032121464  0.056359095   0.12107262 
  147000     -1793259    14988.032    979.74204    77.208503    89.153392    81.460908     1986.712  0.092727557  0.095162636    0.1292935    0.3171837  0.032639473  0.032919684  0.055496018   0.12105517 
  148000   -1793209.1    15061.886    1555.6044    77.208503    89.153392    81.460908    1996.5016  0.094323193  0.094265959   0.12892547   0.31751463  0.033153477  0.032578356  0.055989089   0.12172092 
  149000   -1793248.1    15103.698    1497.8783    77.208503    89.153392    81.460908     2002.044  0.094185175  0.096260693   0.13032437   0.32077024  0.032591677  0.033173303  0.054592049   0.12035703 
  150000   -1793236.7    15015.915    1016.5353    77.208503    89.153392    81.460908     1990.408  0.093800835  0.094663101   0.12967306     0.318137  0.032311419  0.032322632  0.056087554   0.12072161 
  151000   -1793259.2    15097.411     1333.266    77.208503    89.153392    81.460908    2001.2106  0.094177842  0.094457942    0.1309468   0.31958259   0.03176902  0.032552107   0.05617203   0.12049316 
  152000   -1793265.9    15097.035    1562.4857    77.208503    89.153392    81.460908    2001.1608  0.093209793  0.094739727   0.13105316   0.31900268  0.031232951  0.031935931  0.055584803   0.11875369 
  153000   -1793316.6    15105.544    1691.8758    77.208503    89.153392    81.460908    2002.2887  0.093563964  0.094256686   0.13058767   0.31840831   0.03171552  0.032291576  0.054605273   0.11861237 
  154000   -1793198.9    15029.275    1624.1914    77.208503    89.153392    81.460908    1992.1789  0.094132684  0.095979673   0.13317863   0.32329099  0.032128489   0.03321735  0.055615646   0.12096149 
  155000   -1793147.9    15118.317    1946.1348    77.208503    89.153392    81.460908    2003.9817  0.096473453  0.097066117   0.13472723    0.3282668  0.033205582  0.033167246   0.05491989   0.12129272 
  156000   -1793372.8    15049.379    996.54538    77.208503    89.153392    81.460908    1994.8438   0.09493626  0.096097223   0.13206416   0.32309765  0.032882447  0.033444478  0.055323471    0.1216504 
  157000   -1793271.8    15190.173    1430.4496    77.208503    89.153392    81.460908    2013.5065  0.095583112  0.095975021   0.13238851   0.32394664  0.032503778  0.032668671   0.05533092   0.12050337 
  158000   -1793290.9    15067.283    1625.0279    77.208503    89.153392    81.460908    1997.2171  0.094330763  0.096860539   0.13394338   0.32513468  0.031756927  0.034188885  0.054430222   0.12037603 
  159000   -1793278.1    15084.324    1111.1655    77.208503    89.153392    81.460908    1999.4758  0.096043407  0.096331064    0.1311711   0.32354557  0.032322168  0.032932546  0.054743696   0.11999841 
  160000   -1793309.9    15063.407    1229.0759    77.208503    89.153392    81.460908    1996.7032  0.095557526  0.096735447   0.13393393    0.3262269  0.031681425   0.03289124   0.05434131   0.11891397 
  161000   -1793272.6    15066.233    1388.1933    77.208503    89.153392    81.460908    1997.0778  0.097375153  0.096221874   0.13339629   0.32699332  0.032516361  0.032111482  0.053370394   0.11799824 
  162000   -1793169.8    15048.315    1553.4555    77.208503    89.153392    81.460908    1994.7027  0.099032001  0.097587587   0.13513357   0.33175316  0.032763126  0.032365404  0.053493596   0.11862213 
  163000   -1793275.1     15059.87     1058.476    77.208503    89.153392    81.460908    1996.2345  0.098715303  0.097511099    0.1339636      0.33019  0.033627042  0.032714432  0.053212099   0.11955357 
  164000   -1793258.8    15061.751    1516.1367    77.208503    89.153392    81.460908    1996.4837   0.09978401  0.098143151   0.13321328   0.33114044  0.033472433   0.03229917  0.052010516   0.11778212 
  165000   -1793256.8    15079.949    1688.6701    77.208503    89.153392    81.460908     1998.896  0.097399632  0.099737557   0.13437422   0.33151141  0.031988273  0.032834365  0.053461317   0.11828396 
  166000   -1793359.8    15102.112    1244.1884    77.208503    89.153392    81.460908    2001.8337  0.097512116  0.097671651   0.13395736   0.32914112  0.030943397  0.032773592  0.053132324   0.11684931 
  167000   -1793236.7    15135.247    2224.2296    77.208503    89.153392    81.460908    2006.2259  0.099916533  0.099018079   0.13469797   0.33363258  0.032822383  0.032498802  0.053634692   0.11895588 
  168000   -1793237.5    15126.308    2007.8991    77.208503    89.153392    81.460908     2005.041   0.09958823  0.097683837   0.13485758   0.33212965  0.031935195  0.032353149  0.053895911   0.11818425 
  169000   -1793216.2    15153.953      1470.71    77.208503    89.153392    81.460908    2008.7054  0.099605693  0.099044662   0.13693898   0.33558934  0.032982722  0.032531985  0.054521736   0.12003644 
  170000   -1793271.1    15107.676    1502.3126    77.208503    89.153392    81.460908    2002.5712  0.099774363   0.10087342   0.13983237   0.34048015  0.031683357  0.033767008  0.055630508   0.12108087 
  171000   -1793239.1    15115.318    1723.7116    77.208503    89.153392    81.460908    2003.5842   0.10077302   0.10086749   0.13899559    0.3406361  0.032710288  0.032738308  0.053917143   0.11936574 
  172000   -1793287.5    15052.486    1669.2331    77.208503    89.153392    81.460908    1995.2557  0.099261322   0.10230796   0.14020834   0.34177762  0.032501244  0.034027239  0.054931703   0.12146019 
  173000   -1793186.9     15146.08    2578.9479    77.208503    89.153392    81.460908    2007.6618   0.10133759   0.10087528   0.13863829   0.34085116  0.032130544  0.031853625  0.054567667   0.11855184 
  174000   -1793263.4     15116.09    1573.4625    77.208503    89.153392    81.460908    2003.6866  0.099559476   0.10170393   0.13766645   0.33892985  0.030938067   0.03274263  0.053978088   0.11765878 
  175000   -1793227.2    15135.836    1701.5447    77.208503    89.153392    81.460908    2006.3039   0.10028332    0.1017055   0.13983721   0.34182603  0.031034277  0.032342213  0.055099327   0.11847582 
  176000   -1793305.2    15034.145    1065.9987    77.208503    89.153392    81.460908    1992.8245   0.10148957    0.1010764   0.13958438   0.34215034  0.031625509  0.032592481   0.05515589   0.11937388 
  177000   -1793234.4    15195.682    1532.4004    77.208503    89.153392    81.460908    2014.2367   0.10130621   0.10117405   0.13997373   0.34245399  0.031098937  0.031468966   0.05512775   0.11769565 
  178000   -1793235.3    15070.498    1605.4393    77.208503    89.153392    81.460908    1997.6431   0.10275936   0.10180104   0.14090493   0.34546534  0.032216296  0.033185654  0.055315649    0.1207176 
  179000   -1793251.7    15095.177      1790.04    77.208503    89.153392    81.460908    2000.9144   0.10461561     0.102071   0.13984216   0.34652876  0.033280292  0.032822276    0.0550961   0.12119867 
  180000   -1793136.1    15086.913    1611.5979    77.208503    89.153392    81.460908    1999.8191   0.10335075   0.10126108   0.14141467    0.3460265  0.031526115  0.032434275   0.05765668   0.12161707 
  181000   -1793288.3    14938.472    954.09042    77.208503    89.153392    81.460908    1980.1427   0.10426727   0.10349782   0.14222887   0.34999397  0.031663011  0.033786669   0.05555439   0.12100407 
  182000   -1793204.3    15033.285    1699.9447    77.208503    89.153392    81.460908    1992.7104   0.10405554   0.10163233   0.14221085   0.34789872  0.031490897   0.03159413  0.055607428   0.11869245 
  183000   -1793198.9    15042.786    1695.0233    77.208503    89.153392    81.460908    1993.9698   0.10419571   0.10316786   0.14172056   0.34908412  0.031721169   0.03287392  0.056259258   0.12085435 
  184000   -1793271.6    15150.108    2095.2593    77.208503    89.153392    81.460908    2008.1957   0.10488513   0.10348453    0.1406346   0.34900425  0.031590677  0.033353001  0.056282596   0.12122627 
  185000   -1793183.2    15067.534    1508.9135    77.208503    89.153392    81.460908    1997.2503   0.10658983   0.10431852   0.14285672   0.35376507  0.031889775  0.032650478  0.058136523   0.12267678 
  186000   -1793204.8    15162.485    1995.4047    77.208503    89.153392    81.460908    2009.8363   0.10821235    0.1050422   0.14034372   0.35359827  0.032008689  0.033572888  0.055590135   0.12117171 
  187000   -1793198.3    15133.698    1627.3884    77.208503    89.153392    81.460908    2006.0206    0.1076143   0.10481881   0.14274353   0.35517665   0.03229623  0.033324695  0.057172616   0.12279354 
  188000   -1793188.5    15080.536    1598.6369    77.208503    89.153392    81.460908    1998.9737   0.10752423   0.10487246   0.14142242   0.35381911  0.032262288  0.033569346  0.057733295   0.12356493 
  189000   -1793309.8    15069.618    585.70571    77.208503    89.153392    81.460908    1997.5265   0.10699427     0.104376   0.14138617   0.35275645  0.031784716  0.032537057  0.056472962   0.12079474 
  190000   -1793299.8    15066.453    1031.5212    77.208503    89.153392    81.460908     1997.107   0.10779586   0.10619391   0.14379411   0.35778388  0.032625462   0.03364817  0.057726352   0.12399998 
  191000   -1793235.9    15045.035    1081.1391    77.208503    89.153392    81.460908    1994.2679    0.1073705   0.10395827    0.1436122   0.35494097  0.031279783  0.032240836  0.057416642   0.12093726 
  192000   -1793321.6    15107.548    1064.5656    77.208503    89.153392    81.460908    2002.5542   0.10694592   0.10530169   0.14370508   0.35595268  0.031778793  0.032832058  0.057696269   0.12230712 
  193000   -1793300.5    15076.978    1165.0438    77.208503    89.153392    81.460908    1998.5021   0.10748949   0.10512878   0.14244121   0.35505948  0.031127719   0.03243579  0.054716755   0.11828026 
  194000   -1793260.3    15129.487     1677.115    77.208503    89.153392    81.460908    2005.4623   0.10728883   0.10570134    0.1442083   0.35719847   0.03124141  0.032332951  0.057736989   0.12131135 
  195000   -1793244.3     15082.85    1407.9707    77.208503    89.153392    81.460908    1999.2805   0.10706906   0.10551286   0.14461506   0.35719698  0.031533525  0.032285734  0.059456646    0.1232759 
  196000   -1793320.3    14999.714    900.95428    77.208503    89.153392    81.460908    1988.2605   0.10786842   0.10562389   0.14315677   0.35664907   0.03099808  0.032897312  0.057184856   0.12108025 
  197000   -1793283.8    15018.452    1135.2951    77.208503    89.153392    81.460908    1990.7443   0.10946353   0.10502625   0.14459716   0.35908694  0.032088171  0.032485354  0.057739527   0.12231305 
  198000   -1793251.7    15120.309    1707.6849    77.208503    89.153392    81.460908    2004.2457   0.10854936   0.10400451     0.145151   0.35770487  0.032110942  0.031604315  0.056038077   0.11975333 
  199000   -1793328.6    15146.017    1523.8887    77.208503    89.153392    81.460908    2007.6535   0.10965039   0.10699021   0.14716516   0.36380576  0.031080968  0.032454461  0.057510863   0.12104629 
  200000   -1793283.2    15099.032    1313.6892    77.208503    89.153392    81.460908    2001.4254   0.10922014   0.10633934   0.14646106   0.36202054  0.032103993  0.032399235  0.056995048   0.12149828 
  201000   -1793245.4    15112.425    1968.7615    77.208503    89.153392    81.460908    2003.2008   0.10924669   0.10591135   0.14731935   0.36247739  0.031716969  0.031259184  0.057830732   0.12080688 
  202000   -1793202.3    15064.885    1451.6641    77.208503    89.153392    81.460908    1996.8992   0.10955745   0.10802137   0.14823431   0.36581313  0.031869112  0.033600756  0.057258102   0.12272797 
  203000   -1793284.5    15116.839    1319.3825    77.208503    89.153392    81.460908    2003.7858   0.11074294   0.10726221   0.14817238   0.36617752   0.03198204  0.032601643  0.058517864   0.12310155 
  204000   -1793134.7    15086.625    1812.9172    77.208503    89.153392    81.460908    1999.7809   0.11034093   0.10735631   0.14918941   0.36688665   0.03170717   0.03359639   0.05743842   0.12274198 
  205000   -1793248.6    15034.116    1490.1986    77.208503    89.153392    81.460908    1992.8207    0.1113334   0.10692403    0.1464356   0.36469304  0.032653216  0.032477657  0.055395158   0.12052603 
  206000     -1793330    15098.945    1464.4744    77.208503    89.153392    81.460908     2001.414   0.11048903   0.10905768   0.15014121   0.36968791  0.031585984  0.033153574  0.055831804   0.12057136 
  207000     -1793239    15078.153    1676.3105    77.208503    89.153392    81.460908    1998.6579   0.11021709   0.10890915   0.14722656   0.36635281  0.032252939  0.032528278  0.055135185    0.1199164 
  208000     -1793177    15095.576    1780.0381    77.208503    89.153392    81.460908    2000.9673   0.11122554   0.10673037   0.14679121   0.36474712  0.031648606  0.032111321  0.055311388   0.11907132 
  209000   -1793244.3    15099.891    950.12643    77.208503    89.153392    81.460908    2001.5393   0.11045519   0.10998777   0.14654365   0.36698662    0.0316047  0.033584864  0.056954087   0.12214365 
  210000   -1793104.2    15149.326     2321.346    77.208503    89.153392    81.460908    2008.0921   0.11167547   0.10577968   0.15074924    0.3682044  0.032339945  0.031631829  0.058107421    0.1220792 
  211000   -1793293.7    15120.002    1135.1949    77.208503    89.153392    81.460908    2004.2051   0.11268686   0.10894993   0.15102584   0.37266263  0.032086011  0.032875475  0.057177613    0.1221391 
  212000   -1793254.3    15072.498    1499.3166    77.208503    89.153392    81.460908    1997.9082   0.11202647   0.10822491   0.14889764   0.36914902  0.031951534  0.031953596  0.056954239   0.12085937 
  213000   -1793226.9    15099.349    1603.2106    77.208503    89.153392    81.460908    2001.4675   0.11190881   0.10888634   0.15079156   0.37158671  0.031485406  0.032617362   0.05509556   0.11919833 
  214000   -1793299.4    15078.156    1317.0031    77.208503    89.153392    81.460908    1998.6582   0.11254096   0.10945343    0.1509093   0.37290368  0.031830924  0.032978677  0.056972786   0.12178239 
  215000   -1793193.2    15062.901    1735.5108    77.208503    89.153392    81.460908    1996.6362   0.11354555   0.10945442    0.1505759   0.37357587  0.031942487   0.03269427  0.055123774   0.11976053 
  216000   -1793272.4    15087.609    1277.3473    77.208503    89.153392    81.460908    1999.9113   0.11407199   0.11129254   0.15212715   0.37749168  0.032358664  0.032982596  0.055947624   0.12128888 
  217000   -1793304.4    15166.564    1727.5037    77.208503    89.153392    81.460908     2010.377   0.11260504   0.10994931   0.15162574   0.37418009  0.031597992  0.032023574  0.054942736    0.1185643 
  218000   -1793244.9    15070.071    1331.1492    77.208503    89.153392    81.460908    1997.5866   0.11398945   0.11172344   0.15077127   0.37648417  0.032426282  0.033178029  0.054432262   0.12003657 
  219000   -1793275.7    15038.427    1117.1391    77.208503    89.153392    81.460908    1993.3921   0.11486775   0.11091248   0.14988791   0.37566814  0.033068766  0.032836557  0.055397126   0.12130245 
  220000     -1793245    15077.014    2019.2249    77.208503    89.153392    81.460908    1998.5069    0.1156706   0.11163714    0.1517952   0.37910294   0.03280421   0.03233285  0.056596905   0.12173397 
  221000   -1793316.1    15128.776    1346.7907    77.208503    89.153392    81.460908    2005.3681   0.11398883   0.11131436   0.15178055   0.37708374  0.031367246  0.032311666  0.055757568   0.11943648 
  222000   -1793200.2    15037.581    1987.7965    77.208503    89.153392    81.460908      1993.28   0.11470371   0.11197456   0.15173566   0.37841393  0.031641571  0.032614817  0.056710091   0.12096648 
  223000   -1793311.3    15114.855    1020.7295    77.208503    89.153392    81.460908    2003.5228   0.11466065   0.11180678   0.15324113   0.37970857  0.032411582  0.032434782  0.056305387   0.12115175 
  224000     -1793236     15161.35     2381.902    77.208503    89.153392    81.460908    2009.6859   0.11537612   0.11210154   0.15533346   0.38281112  0.032158495   0.03195536  0.058589627   0.12270348 
  225000   -1793357.8    15198.163    1587.7861    77.208503    89.153392    81.460908    2014.5656   0.11448353   0.11260777   0.15496865   0.38205995  0.030955368   0.03356189  0.058851568   0.12336883 
  226000   -1793242.8    15100.415    1647.9545    77.208503    89.153392    81.460908    2001.6088   0.11601225   0.11337978   0.15547548   0.38486751  0.031778524  0.032174387  0.057520428   0.12147334 
  227000   -1793207.1     15113.92    1743.3035    77.208503    89.153392    81.460908    2003.3988   0.11560724   0.11375071   0.15711324   0.38647119  0.031572287  0.032706432  0.059931934   0.12421065 
  228000   -1793203.8    15094.701    2326.7831    77.208503    89.153392    81.460908    2000.8513   0.11669193     0.113855    0.1564229   0.38696982  0.031764701  0.032648679  0.057843369   0.12225675 
  229000     -1793233    15111.823    1117.1967    77.208503    89.153392    81.460908     2003.121   0.11666987   0.11410416   0.15984346   0.39061749  0.032371794  0.033056498  0.059776759   0.12520505 
  230000   -1793322.1    15002.643    1745.2197    77.208503    89.153392    81.460908    1988.6487   0.11634759   0.11464184   0.15751737    0.3885068  0.031819978  0.032775331  0.059713618   0.12430893 
  231000   -1793286.2    15143.072    1952.1218    77.208503    89.153392    81.460908     2007.263   0.11699863   0.11422073   0.15895948   0.39017885  0.032070249  0.031875272  0.060405124   0.12435065 
  232000   -1793299.8    15121.477    1190.4902    77.208503    89.153392    81.460908    2004.4006   0.11739163   0.11421054   0.15521108   0.38681325  0.032467378  0.032628497  0.057937314   0.12303319 
  233000   -1793335.2    15100.039    1514.1179    77.208503    89.153392    81.460908     2001.559   0.11586487   0.11518396   0.15794228   0.38899111  0.032662714  0.032587889  0.061002865   0.12625347 
  234000   -1793198.7     15052.03    2306.4171    77.208503    89.153392    81.460908    1995.1952   0.11715314   0.11306546   0.15765222   0.38787083  0.032761977  0.032547642  0.059068698   0.12437832 
  235000   -1793254.7    15030.054    722.56645    77.208503    89.153392    81.460908    1992.2822   0.11655681   0.11541694   0.15640069   0.38837444  0.031857304  0.032595549  0.061577289   0.12603014 
  236000   -1793247.9    15062.045    1206.4766    77.208503    89.153392    81.460908    1996.5227   0.11723235   0.11532206   0.15664308   0.38919749  0.032120283  0.032432582  0.061291243   0.12584411 
  237000   -1793280.8    15088.768    803.37219    77.208503    89.153392    81.460908    2000.0649   0.11625834   0.11588438   0.15880348   0.39094619  0.031571407  0.032348197  0.061617781   0.12553739 
  238000     -1793234    15088.935    1143.6135    77.208503    89.153392    81.460908     2000.087   0.11857445   0.11588205   0.15928551   0.39374201  0.032953082  0.032548927  0.061071035   0.12657304 
  239000   -1793297.5     15102.22    1398.6191    77.208503    89.153392    81.460908    2001.8481   0.11595093    0.1153113   0.15996176   0.39122399  0.031195496  0.031955461  0.063100655   0.12625161 
  240000   -1793293.1    15069.529    1714.5481    77.208503    89.153392    81.460908    1997.5147   0.11751438   0.11528566    0.1601483   0.39294835  0.031752416  0.031904755  0.059881221   0.12353839 
  241000   -1793187.3    15004.242    2007.1864    77.208503    89.153392    81.460908    1988.8608   0.11820705   0.11625328   0.15813022   0.39259055  0.032772908  0.031872031  0.060392874   0.12503781 
  242000   -1793325.2    15119.953    1109.4936    77.208503    89.153392    81.460908    2004.1985   0.11861633   0.11737803   0.16132103   0.39731539  0.030961923  0.032339965  0.061319955   0.12462184 
  243000   -1793250.3    15128.854    1471.4201    77.208503    89.153392    81.460908    2005.3784   0.11900693   0.11829636   0.16092508   0.39822838  0.031534226  0.032400014  0.060197559    0.1241318 
  244000   -1793321.8    15091.399    1322.9064    77.208503    89.153392    81.460908    2000.4137   0.11943861      0.11814   0.16285907   0.40043768  0.032167943  0.033040499  0.062449121   0.12765756 
  245000   -1793305.9    15096.049    992.72254    77.208503    89.153392    81.460908      2001.03   0.11848421   0.11759748   0.16166937   0.39775106  0.031815761  0.031581329  0.060992245   0.12438934 
  246000   -1793313.4    15037.244    867.92618    77.208503    89.153392    81.460908    1993.2352   0.11856998   0.11863419   0.16426869   0.40147286  0.031134628  0.032395913  0.063549545   0.12708009 
  247000     -1793260     15139.45    1899.3063    77.208503    89.153392    81.460908     2006.783   0.11895798    0.1174364   0.16180028   0.39819466  0.031258536  0.032329302  0.060999774   0.12458761 
  248000   -1793284.8    15103.108    1998.4117    77.208503    89.153392    81.460908    2001.9658   0.11830037   0.11772475   0.16377825   0.39980337  0.032089224  0.032351127  0.061161305   0.12560166 
  249000   -1793204.5    15183.314    2291.6145    77.208503    89.153392    81.460908    2012.5973   0.11940889   0.11988785    0.1607388   0.40003554    0.0314744  0.033095392  0.060836946   0.12540674 
  250000   -1793183.6    15067.572     2112.974    77.208503    89.153392    81.460908    1997.2553    0.1193552   0.11730818   0.16408306   0.40074644  0.031868167  0.031870851   0.06161863   0.12535765 
  251000   -1793266.4    15095.757    1824.2278    77.208503    89.153392    81.460908    2000.9913   0.11924784   0.11951891   0.16173415    0.4005009   0.03157282   0.03232615  0.059472917   0.12337189 
  252000   -1793237.3    15177.876    2295.8497    77.208503    89.153392    81.460908    2011.8764    0.1211631   0.11798484    0.1622142   0.40136214  0.032473498  0.032488059  0.060071178   0.12503274 
  253000     -1793292    15107.435    1315.3748    77.208503    89.153392    81.460908    2002.5393    0.1209593    0.1174274   0.16629989   0.40468658  0.032753993  0.031243759  0.062368086   0.12636584 
  254000   -1793173.3    15082.659    1140.4319    77.208503    89.153392    81.460908    1999.2552   0.12040572   0.11965863   0.16460074    0.4046651  0.032525898   0.03265336  0.061837914   0.12701717 
  255000   -1793350.5    15034.089    984.44798    77.208503    89.153392    81.460908    1992.8171   0.12102802   0.11872755    0.1676272   0.40738277  0.031572102  0.032398792  0.063230674   0.12720157 
  256000     -1793259     15105.06    1629.6607    77.208503    89.153392    81.460908    2002.2244   0.12043436   0.11955145   0.16609222   0.40607803  0.031682069  0.033089813  0.060219539   0.12499142 
  257000   -1793286.7    15078.424    1675.3225    77.208503    89.153392    81.460908    1998.6938   0.12102874    0.1196997   0.16580368   0.40653213  0.031885698  0.032792835  0.062319439   0.12699797 
  258000   -1793226.9     15074.85    2024.3548    77.208503    89.153392    81.460908      1998.22   0.12150869   0.11922731    0.1658806   0.40661661  0.032084883  0.032800705  0.060215804   0.12510139 
  259000   -1793220.8    15042.867    2221.7109    77.208503    89.153392    81.460908    1993.9805   0.12271652   0.11782199   0.16639594   0.40693445  0.031927335  0.032264204  0.061849414   0.12604095 
  260000   -1793282.4    15096.903    1200.6071    77.208503    89.153392    81.460908    2001.1432     0.122169   0.11874146   0.16645265   0.40736311  0.030998868  0.031858702  0.060827682   0.12368525 
  261000   -1793240.5    15135.099    1010.3627    77.208503    89.153392    81.460908    2006.2063    0.1229886   0.12159024   0.16645092   0.41102976  0.032492725  0.032673678  0.059873127   0.12503953 
  262000   -1793268.6    15058.205    1759.0097    77.208503    89.153392    81.460908    1996.0137   0.12438299   0.11928004   0.16599521   0.40965824  0.032247775  0.031157873  0.061204973   0.12461062 
  263000   -1793201.7     15171.28    2468.6749    77.208503    89.153392    81.460908    2011.0022   0.12392118   0.11987606   0.16838882   0.41218606  0.032237484  0.031044913  0.061555024   0.12483742 
  264000   -1793218.5    15049.712    1274.4367    77.208503    89.153392    81.460908    1994.8879    0.1224805   0.12346304   0.16976045   0.41570399  0.031877107  0.033558944  0.062005915   0.12744197 
  265000   -1793199.4    15048.296    1966.0418    77.208503    89.153392    81.460908    1994.7002   0.12368876   0.12099759   0.16793864     0.412625  0.032085291   0.03252893   0.06174384   0.12635806 
  266000   -1793290.5    15059.715    1364.4505    77.208503    89.153392    81.460908    1996.2139    0.1230029   0.12162746   0.16992356   0.41455392  0.031913171  0.032295739  0.061704562   0.12591347 
  267000   -1793228.6    15063.368    1876.3234    77.208503    89.153392    81.460908     1996.698   0.12543512   0.12419616   0.16832473   0.41795602  0.032223779  0.033497224  0.061282196    0.1270032 
  268000   -1793244.4    15109.325    1752.9827    77.208503    89.153392    81.460908    2002.7899   0.12380284   0.12328078   0.16825934   0.41534296  0.032410138   0.03220889  0.059466606   0.12408563 
  269000   -1793261.4    15170.496    1620.7077    77.208503    89.153392    81.460908    2010.8983   0.12611875   0.12262715   0.16790269   0.41664859  0.031981248  0.032169256  0.058554945   0.12270545 
  270000   -1793283.4    14987.022    1160.3127    77.208503    89.153392    81.460908    1986.5781   0.12524403   0.12469689   0.16965492   0.41959584  0.032036797  0.032996668  0.058596075   0.12362954 
  271000   -1793214.7    15132.392    2324.5722    77.208503    89.153392    81.460908    2005.8474   0.12707036   0.12535916    0.1694991   0.42192863  0.032053238  0.032949224    0.0589821   0.12398456 
  272000   -1793234.6    15062.547    2063.7698    77.208503    89.153392    81.460908    1996.5893   0.12692002   0.12475594   0.17221842   0.42389437  0.032439782  0.032436171  0.058595089   0.12347104 
  273000   -1793208.7    15093.975     1544.453    77.208503    89.153392    81.460908    2000.7551   0.12649131   0.12409617   0.17265479   0.42324227  0.031980908  0.032732828  0.061445427   0.12615916 
  274000     -1793167    15166.103    2261.2088    77.208503    89.153392    81.460908    2010.3159   0.12704335   0.12431879   0.17145673   0.42281887  0.031442156  0.032143727  0.060119558   0.12370544 
  275000     -1793327    15047.319    1441.5869    77.208503    89.153392    81.460908    1994.5708   0.12750905   0.12468215   0.17337491   0.42556611  0.032068075  0.032301779  0.060915007   0.12528486 
  276000   -1793309.9    15161.935    1490.3258    77.208503    89.153392    81.460908    2009.7635   0.12631793    0.1231097   0.16979115   0.41921878  0.031166219  0.031751626  0.057772456    0.1206903 
  277000   -1793248.8     15087.02    2102.4274    77.208503    89.153392    81.460908    1999.8332   0.12781101   0.12564482   0.17294488    0.4264007  0.032054533  0.032566044  0.059736875   0.12435745 
  278000   -1793224.8      15046.1     1495.211    77.208503    89.153392    81.460908    1994.4091   0.12807321   0.12640899   0.17156144   0.42604363  0.031664772  0.031403864  0.059291425   0.12236006 
  279000   -1793257.3    15049.599     1223.132    77.208503    89.153392    81.460908     1994.873   0.12771615   0.12664459   0.16980815   0.42416888  0.032206727  0.032073888  0.059945538   0.12422615 
  280000     -1793278    15029.165    841.10351    77.208503    89.153392    81.460908    1992.1644   0.12873533   0.12660558   0.17526796   0.43060887  0.031856116  0.031928832  0.060959696   0.12474464 
  281000   -1793167.9    15065.623    1643.6687    77.208503    89.153392    81.460908    1996.9969   0.12855071   0.12618969   0.17380334   0.42854375  0.032251674  0.031755241  0.059686929   0.12369384 
  282000   -1793322.9    15021.193    1259.4097    77.208503    89.153392    81.460908    1991.1076   0.12879839   0.12716838   0.17500424   0.43097102  0.031875801   0.03304386  0.061591249   0.12651091 
  283000     -1793275    15063.101      1504.72    77.208503    89.153392    81.460908    1996.6627   0.12953626   0.12771464   0.17501578   0.43226668  0.032095471  0.031582032  0.060274405   0.12395191 
  284000   -1793206.8    15098.643    2160.7877    77.208503    89.153392    81.460908    2001.3739    0.1299135   0.12864562   0.17463018    0.4331893  0.032480175  0.032614325  0.060622849   0.12571735 
  285000   -1793232.1    15123.666    1678.7915    77.208503    89.153392    81.460908    2004.6907    0.1314271   0.12784972   0.17557464   0.43485145  0.032063483  0.031704952  0.059026613   0.12279505 
  286000   -1793262.2    15144.029    2123.8789    77.208503    89.153392    81.460908      2007.39   0.13240409   0.12895898   0.17745861   0.43882168  0.032389737  0.032294547  0.060171413    0.1248557 
  287000   -1793223.8    15102.968    1686.6562    77.208503    89.153392    81.460908    2001.9472   0.13187941   0.12964759   0.17608873   0.43761573  0.031266819  0.032881097   0.05938288    0.1235308 
  288000   -1793297.4    15122.741    1431.5727    77.208503    89.153392    81.460908    2004.5681   0.13264351   0.13021162   0.17626032   0.43911545  0.032047367  0.033030655  0.059016575    0.1240946 
  289000   -1793204.1    15059.934    1501.5144    77.208503    89.153392    81.460908    1996.2428   0.13155459    0.1299987   0.17688029   0.43843357  0.032650234  0.032830906  0.058731622   0.12421276 
  290000   -1793084.7    15105.128    2300.1901    77.208503    89.153392    81.460908    2002.2335   0.13125213   0.12991383   0.17761049   0.43877644  0.031765168  0.032700455  0.060023168   0.12448879 
  291000   -1793258.8    15135.656    1079.5108    77.208503    89.153392    81.460908      2006.28   0.13143001   0.13056647   0.17762978   0.43962627  0.031401682  0.033851143  0.060647155   0.12589998 
  292000   -1793218.4    15174.939    2201.2122    77.208503    89.153392    81.460908    2011.4872   0.13318458   0.13132169   0.17924468   0.44375095  0.031950568  0.033225046  0.061808144   0.12698376 
  293000   -1793229.7    14970.004    1723.8647    77.208503    89.153392    81.460908    1984.3224      0.13447   0.13140151   0.17930318    0.4451747  0.032719232  0.032012532  0.061878003   0.12660977 
  294000   -1793224.4    15010.717    1873.3969    77.208503    89.153392    81.460908     1989.719   0.13218161   0.13037083   0.17874845   0.44130089  0.031397658  0.031951108  0.059921895   0.12327066 
  295000   -1793164.2    15183.827    3107.6075    77.208503    89.153392    81.460908    2012.6653   0.13391722   0.13243861   0.17989754   0.44625337  0.032661591  0.032655026  0.062465099   0.12778172 
  296000   -1793254.9    15143.758    1760.9029    77.208503    89.153392    81.460908    2007.3541   0.13249858   0.13203629   0.18023209   0.44476695  0.031925028  0.032568321  0.060536294   0.12502964 
  297000     -1793213    15159.531    1899.2233    77.208503    89.153392    81.460908    2009.4448   0.13417924   0.13055373   0.17964672   0.44437969  0.031998565  0.032094985  0.061613072   0.12570662 
  298000   -1793289.4    15063.389    1832.2842    77.208503    89.153392    81.460908    1996.7009   0.13301011   0.13265935   0.18031136   0.44598082   0.03257415  0.033515541  0.061333274   0.12742296 
  299000   -1793246.6    15097.487      1331.42    77.208503    89.153392    81.460908    2001.2207   0.13252295   0.13185924   0.17942743   0.44380962   0.03196586  0.032618946  0.060649151   0.12523396 
  300000   -1793197.6    14990.302    1478.2666    77.208503    89.153392    81.460908    1987.0129   0.13267181   0.13253149   0.17831415   0.44351745    0.0317628  0.033022299  0.061494997    0.1262801 
  301000   -1793227.2    15093.476    1582.1389    77.208503    89.153392    81.460908    2000.6889   0.13362548   0.13438686   0.17992535   0.44793769  0.032507634  0.032595368  0.061858201    0.1269612 
  302000   -1793254.6    15101.897    2225.7525    77.208503    89.153392    81.460908    2001.8052   0.13410169   0.13473473   0.18146654   0.45030296  0.031870329  0.032645559  0.060639752   0.12515564 
  303000   -1793189.2    15038.412    1064.4305    77.208503    89.153392    81.460908    1993.3901   0.13295732   0.13464452   0.18211051   0.44971235  0.031831231   0.03260607  0.062193985   0.12663129 
  304000   -1793185.7    15071.243    2335.6456    77.208503    89.153392    81.460908     1997.742   0.13271533   0.13445896   0.18159331    0.4487676  0.031362918  0.032645512  0.062622907   0.12663134 
  305000   -1793279.4    15095.985    883.98362    77.208503    89.153392    81.460908    2001.0215   0.13345715   0.13610302   0.18109833   0.45065851  0.030951897   0.03299921  0.061629856   0.12558096 
  306000   -1793259.4    15083.246    1842.8906    77.208503    89.153392    81.460908     1999.333    0.1346822   0.13461403   0.18163265   0.45092887  0.031754157  0.032785014  0.062801102   0.12734027 
  307000   -1793316.5    15170.146    1420.9056    77.208503    89.153392    81.460908    2010.8519   0.13583221   0.13414937   0.18370875   0.45369032  0.032580926  0.033063419  0.061837674   0.12748202 
  308000   -1793240.4    15130.156    1248.2187    77.208503    89.153392    81.460908     2005.551   0.13723893   0.13435371   0.18242437     0.454017  0.033860774  0.031594965  0.061502026   0.12695776 
  309000   -1793289.9    15132.439    1454.7986    77.208503    89.153392    81.460908    2005.8536   0.13455457   0.13631458   0.18485556   0.45572471  0.031515278  0.032911652  0.063399041   0.12782597 
  310000   -1793285.3    15033.192    1176.7343    77.208503    89.153392    81.460908    1992.6982   0.13560361   0.13376664   0.18596807   0.45533832  0.031214872  0.032149111  0.063227181   0.12659116 
  311000   -1793282.6    15034.728    1656.0521    77.208503    89.153392    81.460908    1992.9018   0.13664456   0.13554123   0.18601497   0.45820077  0.032687791  0.033232323  0.065274713   0.13119483 
  312000   -1793174.8    15022.586    1171.5685    77.208503    89.153392    81.460908    1991.2922   0.13720107   0.13542013    0.1836067    0.4562279   0.03392447  0.032865144  0.062534404   0.12932402 
  313000   -1793151.9    15048.416    2401.8978    77.208503    89.153392    81.460908    1994.7162    0.1350151   0.13504618   0.18455472     0.454616  0.032136718  0.032663085  0.063993511   0.12879331 
  314000   -1793232.8    15094.594    1504.6901    77.208503    89.153392    81.460908    2000.8372    0.1348312   0.13604305   0.18391953   0.45479378  0.032200837  0.033220249   0.06120841    0.1266295 
  315000   -1793225.1    15089.926    2124.8393    77.208503    89.153392    81.460908    2000.2184   0.13380415    0.1362079   0.18377279   0.45378483  0.031739832  0.032372969   0.06227956   0.12639236 
  316000   -1793099.4    15120.817    2333.2017    77.208503    89.153392    81.460908    2004.3131   0.13606932   0.13787715   0.18533999   0.45928645  0.033322373  0.033531897  0.063720575   0.13057485 
  317000   -1793274.7    15094.948    1247.4583    77.208503    89.153392    81.460908    2000.8841   0.13508567   0.13835912   0.18655052   0.45999531  0.031109816  0.033170883  0.064381261   0.12866196 
  318000   -1793200.3    15100.911    1602.1979    77.208503    89.153392    81.460908    2001.6745   0.13736126   0.13890906   0.18857545   0.46484577  0.033286817  0.033335054  0.066347586   0.13296946 
  319000   -1793350.7    15104.002    927.17095    77.208503    89.153392    81.460908    2002.0842   0.13601171   0.13760288   0.18811361    0.4617282  0.031776323  0.032318959  0.065936353   0.13003163 
  320000   -1793316.4     15100.88    686.82332    77.208503    89.153392    81.460908    2001.6704   0.13827888   0.13765423   0.18852547   0.46445858  0.032276462  0.032860841   0.06581911   0.13095641 
  321000     -1793266    15091.017    1679.1635    77.208503    89.153392    81.460908     2000.363   0.13818884   0.13824431   0.18940572   0.46583887  0.033214161  0.033266701    0.0659005   0.13238136 
  322000   -1793237.2    15118.033    1828.9297    77.208503    89.153392    81.460908    2003.9441   0.13523311   0.13739799   0.18659256   0.45922366  0.031584164   0.03242509  0.064166993   0.12817625 
  323000   -1793325.1    15065.422    1171.4085    77.208503    89.153392    81.460908    1996.9704   0.13648617   0.13827963   0.18941717   0.46418297  0.031519864   0.03348616  0.067360168   0.13236619 
  324000   -1793279.7     15057.49    1013.7991    77.208503    89.153392    81.460908    1995.9189   0.13774064   0.14063702   0.18810862   0.46648628  0.032020017  0.034584925  0.066864624   0.13346957 
  325000   -1793302.3    15088.962    1722.0922    77.208503    89.153392    81.460908    2000.0907   0.13843289    0.1388731   0.18828526   0.46559124  0.032509166  0.032657287  0.068068976   0.13323543 
  326000     -1793175    15063.513    1910.9307    77.208503    89.153392    81.460908    1996.7173   0.13856933   0.13814616   0.18812359   0.46483907  0.031954225  0.032531173  0.066422336   0.13090773 
  327000   -1793302.9    15092.443    1445.6395    77.208503    89.153392    81.460908    2000.5521   0.13720854   0.13985042   0.19115774    0.4682167  0.030954755   0.03323426  0.066918486    0.1311075 
  328000   -1793198.3    15111.566    1469.7051    77.208503    89.153392    81.460908    2003.0869   0.13852407   0.14071639   0.18899179   0.46823225  0.032226261  0.032466096  0.063923712   0.12861607 
  329000   -1793314.8    15095.971    801.03319    77.208503    89.153392    81.460908    2001.0197   0.13919119   0.14057674   0.19150748   0.47127541  0.032423543  0.032394906  0.066390173   0.13120862 
  330000   -1793328.6    15003.519     384.0803    77.208503    89.153392    81.460908     1988.765   0.14055493   0.14074789   0.19027085   0.47157367  0.031940357  0.033554698  0.064412346    0.1299074 
  331000   -1793312.7    15233.567    1355.5697    77.208503    89.153392    81.460908    2019.2585   0.13960684   0.14179161   0.19175623   0.47315469  0.031108228  0.033621761  0.067948747   0.13267874 
  332000   -1793316.3    15136.106    1561.3336    77.208503    89.153392    81.460908    2006.3398   0.14032608   0.14187469   0.19294187   0.47514264  0.031965565  0.033864848  0.066335593   0.13216601 
  333000   -1793295.6    15049.738    1379.8959    77.208503    89.153392    81.460908    1994.8914   0.13907994   0.14127815   0.19197795   0.47233603  0.031033998  0.033232171  0.065660435    0.1299266 
  334000   -1793355.7    15037.121    801.14891    77.208503    89.153392    81.460908    1993.2189   0.13874131   0.14228473   0.19170115   0.47272719  0.031432684  0.033180453  0.064065503   0.12867864 
  335000     -1793265    15039.875    1864.0833    77.208503    89.153392    81.460908    1993.5839   0.14044015   0.14354797   0.19134096   0.47532908   0.03142782  0.033651834  0.064410348      0.12949 
  336000   -1793246.2     15143.49    2281.9294    77.208503    89.153392    81.460908    2007.3185    0.1412635   0.14245703   0.19276288   0.47648341  0.032744499   0.03392092  0.066350338   0.13301576 
  337000   -1793375.3    15128.585     1373.961    77.208503    89.153392    81.460908    2005.3427   0.14134459   0.14167056    0.1927197   0.47573485  0.032182764  0.032320246  0.065133929   0.12963694 
  338000   -1793231.2    15174.007    2157.3125    77.208503    89.153392    81.460908    2011.3636   0.14168182   0.14316052   0.19502575   0.47986808  0.031767855  0.033237553  0.065596039   0.13060145 
  339000     -1793168     15134.17    1702.7835    77.208503    89.153392    81.460908    2006.0831   0.14229997   0.14423082   0.19549292   0.48202371  0.032494664  0.033119994  0.061450171   0.12706483 
  340000   -1793260.5    15132.457    1369.7367    77.208503    89.153392    81.460908    2005.8561   0.14176681      0.14276   0.19712879   0.48165561  0.032103606  0.032325584  0.063222464   0.12765165 
  341000   -1793320.3    15147.121    1851.8477    77.208503    89.153392    81.460908    2007.7998   0.14080165   0.14437945   0.19590496   0.48108606  0.031670735  0.033363717   0.06154357   0.12657802 
  342000   -1793209.7    15061.148    1152.3702    77.208503    89.153392    81.460908    1996.4038   0.14301656   0.14425328   0.20014747    0.4874173  0.033391625  0.031887657  0.064778087   0.13005737 
  343000   -1793303.2    15113.186    1217.9679    77.208503    89.153392    81.460908    2003.3016   0.14233485   0.14518063   0.19565152   0.48316699  0.031602054  0.032522613  0.061932486   0.12605715 
  344000   -1793260.5    15210.291    1343.4771    77.208503    89.153392    81.460908    2016.1732   0.14227338   0.14514133   0.19759726   0.48501197  0.032058977  0.033090472  0.063102197   0.12825165 
  345000   -1793292.5     15144.84    1717.8728    77.208503    89.153392    81.460908    2007.4974    0.1424375   0.14419681   0.19971925   0.48635356  0.031647708  0.032258222  0.065537481   0.12944341 
  346000   -1793269.4    15104.761     1373.807    77.208503    89.153392    81.460908    2002.1848   0.14473103   0.14491387   0.19817145   0.48781636  0.033185024  0.032987334  0.063136672   0.12930903 
  347000   -1793204.9    14982.674    1640.6583    77.208503    89.153392    81.460908    1986.0018   0.14413259   0.14493693   0.20330231   0.49237183  0.032549784  0.032542052  0.066006794   0.13109863 
  348000   -1793242.3    15103.428     1651.922    77.208503    89.153392    81.460908    2002.0082   0.14288367    0.1470398   0.20005875   0.48998221   0.03159865  0.032979585  0.063589111   0.12816735 
  349000   -1793298.5    15216.927    1321.1055    77.208503    89.153392    81.460908    2017.0529   0.14459209   0.14621666   0.19843227   0.48924102  0.032192787  0.032308833  0.063126934   0.12762855 
  350000   -1793310.1    15145.897    1464.3666    77.208503    89.153392    81.460908    2007.6376   0.14588441   0.14899249   0.19959857   0.49447547   0.03192239  0.034655259  0.063604759   0.13018241 
  351000   -1793236.2    15078.345     1437.899    77.208503    89.153392    81.460908    1998.6834   0.14429123   0.14559888   0.19957737   0.48946747  0.032617772  0.032027879  0.063125128   0.12777078 
  352000   -1793356.3    15047.999    989.03249    77.208503    89.153392    81.460908    1994.6608   0.14535464   0.14826104   0.19911809   0.49273378  0.032155265  0.032925961  0.063927986   0.12900921 
  353000   -1793235.6    15122.299     2131.451    77.208503    89.153392    81.460908    2004.5096   0.14550586   0.14760688   0.19996411   0.49307685  0.032060289   0.03201886  0.064255867   0.12833502 
  354000   -1793234.8    15054.388    1368.0201    77.208503    89.153392    81.460908    1995.5077   0.14602625   0.14751964   0.20009567   0.49364156  0.032726327  0.032749032  0.064205309   0.12968067 
  355000   -1793334.4    15026.921    1620.6524    77.208503    89.153392    81.460908    1991.8669   0.14745492   0.14716465   0.20235896   0.49697853   0.03200044  0.032713399  0.063624959    0.1283388 
  356000   -1793129.5    15047.976    2010.5518    77.208503    89.153392    81.460908    1994.6578   0.14702377   0.14947447   0.20166135    0.4981596  0.032434225  0.032780545  0.065152498   0.13036727 
  357000   -1793198.3    15134.891    1849.8658    77.208503    89.153392    81.460908    2006.1787   0.14605581   0.14867434   0.20122947   0.49595962  0.031280043  0.032977081  0.063625452   0.12788258 
  358000     -1793274    15134.152    1633.6256    77.208503    89.153392    81.460908    2006.0807   0.14725141   0.14755017   0.20257344   0.49737502  0.032062884  0.032258131  0.063428912   0.12774993 
  359000     -1793289    15145.577    1498.8688    77.208503    89.153392    81.460908    2007.5952   0.14839727   0.14782746   0.20395968   0.50018441  0.032881807  0.032343158  0.065198525   0.13042349 
  360000   -1793286.9    15073.031    1150.0479    77.208503    89.153392    81.460908    1997.9789   0.14704136   0.15048534   0.20476405   0.50229075  0.032228988  0.032941627  0.065097528   0.13026814 
  361000   -1793233.4    15108.266    1418.2589    77.208503    89.153392    81.460908    2002.6494   0.14732937   0.14954677   0.20432958   0.50120572  0.031910365  0.032638427  0.063261965   0.12781076 
  362000   -1793303.4    15116.379    1622.3112    77.208503    89.153392    81.460908    2003.7249   0.14732644   0.15024181   0.20568561   0.50325387  0.033260074  0.032953687  0.063648499   0.12986226 
  363000   -1793246.2    15223.158    2164.5522    77.208503    89.153392    81.460908    2017.8788   0.14768014   0.15118179   0.20483388   0.50369581  0.031798785  0.033154934  0.062568298   0.12752202 
  364000   -1793264.6     15028.55    2232.2106    77.208503    89.153392    81.460908    1992.0829   0.14934872   0.15092081    0.2064237   0.50669323   0.03192702  0.033121604  0.061784501   0.12683312 
  365000   -1793193.6    15040.526    1589.5821    77.208503    89.153392    81.460908    1993.6703   0.14978104   0.15367336   0.20562466   0.50907906  0.033343184  0.033808877  0.063075143    0.1302272 
  366000   -1793176.7     15054.19    2159.2581    77.208503    89.153392    81.460908    1995.4815   0.15017316   0.15231318   0.20674262   0.50922896  0.031326842  0.032518982  0.061285917   0.12513174 
  367000   -1793256.2    15028.222    2085.7661    77.208503    89.153392    81.460908    1992.0393   0.14799273   0.15379878   0.20718753   0.50897904  0.032315922  0.032975031  0.064404385   0.12969534 
  368000   -1793318.7    15082.528    1577.0928    77.208503    89.153392    81.460908    1999.2378   0.15040731   0.15452827   0.20849264   0.51342821  0.032849305  0.033334341  0.063472998   0.12965664 
  369000   -1793281.2    15109.636    1700.8928    77.208503    89.153392    81.460908    2002.8311   0.14913159   0.15299447    0.2083974   0.51052347   0.03258855  0.032126381  0.064951664   0.12966659 
  370000   -1793382.9    15102.626    717.62974    77.208503    89.153392    81.460908    2001.9019   0.14960349   0.15357688   0.20908764   0.51226802  0.032150983  0.032746732  0.064241711   0.12913943 
  371000   -1793248.5    15049.797    1234.5911    77.208503    89.153392    81.460908    1994.8992   0.14906094   0.15208948    0.2101379   0.51128833  0.031681401  0.031668554     0.065645   0.12899496 
  372000     -1793213    15025.612    2334.1104    77.208503    89.153392    81.460908    1991.6933   0.15140917   0.15385384   0.21145899     0.516722  0.033036805  0.032510082  0.065138673   0.13068556 
  373000   -1793281.6    15122.505    1377.9003    77.208503    89.153392    81.460908    2004.5368   0.15164929   0.15180275     0.210718   0.51417004  0.032021516  0.030999004  0.064713544   0.12773406 
  374000     -1793271    15025.468     1545.268    77.208503    89.153392    81.460908    1991.6743   0.15124083   0.15542441   0.21017885   0.51684409  0.032514116  0.032792711  0.063900876    0.1292077 
  375000   -1793311.4    15045.146    1419.2482    77.208503    89.153392    81.460908    1994.2827   0.15017553   0.15493424   0.20906415   0.51417392  0.031722503  0.033239439  0.063330004   0.12829195 
  376000     -1793293     15011.93    1625.0787    77.208503    89.153392    81.460908    1989.8797   0.15126152    0.1548225   0.21185136   0.51793539  0.031859538  0.032968513  0.066720156   0.13154821 
  377000   -1793218.7    15114.622    2456.5963    77.208503    89.153392    81.460908    2003.4919   0.15242635   0.15502082   0.21321151   0.52065867  0.032567533  0.033112683  0.066901512   0.13258173 
  378000   -1793248.4    15025.948     2376.737    77.208503    89.153392    81.460908     1991.738   0.15386077   0.15574137   0.21209388   0.52169601  0.033020895  0.032705631  0.066025336   0.13175186 
  379000   -1793255.9    15023.964    1528.1209    77.208503    89.153392    81.460908     1991.475   0.15276068   0.15683842    0.2137247    0.5233238  0.031477016  0.033559867  0.063900512    0.1289374 
  380000   -1793245.8    15135.347    1606.8737    77.208503    89.153392    81.460908    2006.2391   0.15243729   0.15557779   0.21589249   0.52390757   0.03224155  0.032649747  0.066613653   0.13150495 
  381000   -1793314.7    15112.353    1147.5797    77.208503    89.153392    81.460908    2003.1912   0.15308994   0.15583167   0.21689658   0.52581819  0.033135441  0.032744092  0.065587496   0.13146703 
  382000   -1793235.5    15102.386     1822.695    77.208503    89.153392    81.460908      2001.87    0.1525487   0.15756372   0.21468338    0.5247958  0.032593663  0.033795393  0.066281501   0.13267056 
  383000   -1793238.6    15045.273    983.35489    77.208503    89.153392    81.460908    1994.2995   0.15551955   0.15658131   0.21649614   0.52859699  0.032746626  0.033390696  0.066432897   0.13257022 
  384000   -1793209.7    15042.722     1255.667    77.208503    89.153392    81.460908    1993.9614   0.15538114   0.15674682   0.21503501   0.52716296  0.032080258  0.033070045  0.066784227   0.13193453 
  385000   -1793271.4    15101.829    1724.3144    77.208503    89.153392    81.460908    2001.7962   0.15519259   0.15708844   0.21592255   0.52820358  0.032415572  0.033604016  0.068028282   0.13404787 
  386000   -1793234.8    15100.471    1107.2505    77.208503    89.153392    81.460908    2001.6162   0.15510599   0.15567578   0.21592829   0.52671006  0.033537835  0.032610316   0.06654835    0.1326965 
  387000     -1793171     15082.17    2562.3648    77.208503    89.153392    81.460908    1999.1903   0.15512438   0.15645067   0.21740734   0.52898239  0.031778434  0.031671635  0.068393422   0.13184349 
  388000   -1793290.5    15079.595    933.55264    77.208503    89.153392    81.460908     1998.849   0.15221963    0.1571525   0.21505663   0.52442876   0.03137235  0.032781075  0.064505923   0.12865935 
  389000     -1793121    15122.039    2030.5823    77.208503    89.153392    81.460908    2004.4751   0.15286925   0.15506015   0.21483454   0.52276394  0.033049074  0.032298861  0.066885004   0.13223294 
  390000   -1793159.1    15135.435     1914.968    77.208503    89.153392    81.460908    2006.2508   0.15341175   0.15711582   0.21547552   0.52600309    0.0327613  0.032618361  0.067029818   0.13240948 
  391000   -1793322.5    15153.962    990.08758    77.208503    89.153392    81.460908    2008.7066   0.15296544   0.15809222   0.22054394   0.53160159  0.031613582  0.032259317  0.068587557   0.13246046 
  392000   -1793194.7    15218.684    2403.9512    77.208503    89.153392    81.460908    2017.2857   0.15405002   0.15735059   0.21572228   0.52712288  0.032554333   0.03276767  0.066397715   0.13171972 
  393000   -1793384.2     15064.72     1054.137    77.208503    89.153392    81.460908    1996.8773   0.15488117   0.15785091   0.21845022   0.53118229  0.031928936  0.032242747  0.066712863   0.13088455 
  394000   -1793226.8    15043.831    1450.0554    77.208503    89.153392    81.460908    1994.1084   0.15457269   0.15803199   0.21759322   0.53019791   0.03223888  0.031898421  0.066775641   0.13091294 
  395000   -1793311.5     15079.66    1066.7145    77.208503    89.153392    81.460908    1998.8576   0.15399884   0.15727691   0.21307383   0.52434958   0.03271084  0.031766522  0.066937806   0.13141517 
  396000   -1793229.8    15073.708    1381.7059    77.208503    89.153392    81.460908    1998.0687   0.15336675   0.15797221   0.21835161   0.52969057   0.03174284  0.032159888   0.06939325   0.13329598 
  397000   -1793346.9    15225.938    1025.6831    77.208503    89.153392    81.460908    2018.2473   0.15470811   0.15852982   0.21794309   0.53118101  0.031793319  0.033023488  0.067586868   0.13240367 
  398000   -1793249.6    15171.166    1536.7248    77.208503    89.153392    81.460908    2010.9871   0.15640237   0.15819143   0.21892688   0.53352067  0.032704439  0.032125754  0.068137512    0.1329677 
  399000   -1793218.1    15094.747    2215.5356    77.208503    89.153392    81.460908    2000.8575   0.15559866    0.1594288   0.21843156   0.53345902  0.031890672  0.032860742  0.067079777   0.13183119 
  400000   -1793278.1    15207.291    1762.5841    77.208503    89.153392    81.460908    2015.7755   0.15524663   0.16062148   0.21993596   0.53580407  0.032223867  0.033586163  0.068445056   0.13425509 
  401000     -1793257    15079.699    1481.7991    77.208503    89.153392    81.460908    1998.8628   0.15727093    0.1586696   0.21856301   0.53450354   0.03257102  0.031762961  0.067179819    0.1315138 
  402000   -1793267.6    15125.802    1565.0284    77.208503    89.153392    81.460908    2004.9739   0.15798485   0.15927016   0.21891727   0.53617228  0.031562446  0.032315214  0.068903841    0.1327815 
  403000   -1793284.5    15118.131    1692.6842    77.208503    89.153392    81.460908    2003.9571   0.15750307   0.16080016   0.22118673   0.53948996  0.031186288  0.033503871  0.068484802   0.13317496 
  404000   -1793341.8    15048.687    1425.0888    77.208503    89.153392    81.460908    1994.7521   0.15749558   0.15916034   0.21966153   0.53631746  0.032730122  0.032684956  0.068666703   0.13408178 
  405000   -1793257.3    15100.911    2010.5301    77.208503    89.153392    81.460908    2001.6746    0.1569739   0.15962775   0.21970785   0.53630949  0.031925701  0.033185049  0.069866187   0.13497694 
  406000   -1793275.4    15059.544    1252.5602    77.208503    89.153392    81.460908    1996.1912   0.15795698   0.15851791   0.22201983   0.53849472  0.031735303  0.032869514  0.070175997   0.13478081 
  407000   -1793332.4    14986.673    655.01972    77.208503    89.153392    81.460908    1986.5319   0.15694584   0.15991588   0.22646138    0.5433231  0.033021151  0.033136633   0.07159668   0.13775446 
  408000   -1793158.2    15055.548    1825.9474    77.208503    89.153392    81.460908    1995.6615   0.15745356   0.15887567    0.2226256   0.53895483  0.032435712  0.031870482  0.066660758   0.13096695 
  409000   -1793291.8    15173.238    1716.1009    77.208503    89.153392    81.460908    2011.2618   0.15628963   0.15941728   0.22387294   0.53957985  0.031779599  0.033226308   0.06825452   0.13326043 
  410000   -1793244.8    15144.178    2562.2439    77.208503    89.153392    81.460908    2007.4097   0.15686683   0.16023257   0.22336344   0.54046284  0.031985639  0.032448553  0.069476765   0.13391096 
  411000   -1793244.2     15061.89    1105.9474    77.208503    89.153392    81.460908    1996.5021   0.15775442   0.15908584   0.22301242   0.53985268  0.032863163  0.032641408   0.06958257   0.13508714 
  412000   -1793275.1     15146.62    1682.2881    77.208503    89.153392    81.460908    2007.7334   0.15688938    0.1619482   0.22490182    0.5437394  0.031898662  0.032370459   0.06736182   0.13163094 
  413000   -1793209.4    15128.169    1911.7346    77.208503    89.153392    81.460908    2005.2877   0.15789749   0.16152468   0.22464161   0.54406377  0.032288573  0.032809682  0.068780151   0.13387841 
  414000   -1793309.8    15063.663    1455.3115    77.208503    89.153392    81.460908    1996.7371   0.15825806   0.16189574   0.22656165   0.54671544  0.032401009  0.032339489  0.068481777   0.13322227 
  415000   -1793275.3    15141.561    921.34393    77.208503    89.153392    81.460908    2007.0628   0.15819449   0.16158683   0.22657846   0.54635979  0.032827259   0.03291263  0.071112625   0.13685251 
  416000   -1793255.8    15030.107    1434.4191    77.208503    89.153392    81.460908    1992.2893   0.15724309    0.1625517    0.2266931   0.54648789  0.032291653  0.032190251   0.07015156   0.13463346 
  417000   -1793254.5    15162.701    1796.6649    77.208503    89.153392    81.460908     2009.865   0.15824454   0.16234507   0.22736555   0.54795516  0.031807215  0.032186553  0.070225089   0.13421886 
  418000   -1793226.9    15060.305    1520.5982    77.208503    89.153392    81.460908    1996.2921   0.15819555   0.16205401   0.22948384    0.5497334   0.03219134  0.031578748  0.072427456   0.13619754 
  419000   -1793272.7    15022.207    1538.4007    77.208503    89.153392    81.460908    1991.2421   0.15872256   0.16411363   0.22767028   0.55050647  0.032750086  0.033160289  0.070655678   0.13656605 
  420000   -1793227.4    15064.497    1579.4024    77.208503    89.153392    81.460908    1996.8477   0.16047153   0.16402733   0.22883246   0.55333132  0.032487363   0.03288015  0.070549451   0.13591696 
  421000   -1793184.7    15036.935    2780.3543    77.208503    89.153392    81.460908    1993.1943    0.1599546   0.16457724   0.22778556    0.5523174  0.031869273  0.033546519  0.069824468   0.13524026 
  422000   -1793224.6    15136.471    1939.9114    77.208503    89.153392    81.460908    2006.3881   0.15954612   0.16317934   0.22659646   0.54932193  0.032845539  0.032175507  0.069786929   0.13480798 
  423000   -1793250.9    15057.792    1533.6694    77.208503    89.153392    81.460908    1995.9589   0.15990527    0.1651643   0.22937377   0.55444334  0.032669147  0.032327004  0.069726391   0.13472254 
  424000   -1793208.5    15073.686    1647.0642    77.208503    89.153392    81.460908    1998.0658   0.16077813   0.16406572   0.22975029   0.55459414  0.032901406  0.032313511  0.070907724   0.13612264 
  425000   -1793257.1    15031.499     1242.603    77.208503    89.153392    81.460908    1992.4738   0.16188529   0.16374467   0.23128432   0.55691427  0.032469227  0.032021877  0.068219602   0.13271071 
  426000   -1793305.4    14920.702     918.9615    77.208503    89.153392    81.460908    1977.7872    0.1614168   0.16579395   0.23179116    0.5590019  0.033163843   0.03297594  0.070158065   0.13629785 
  427000   -1793244.4    15065.472    1266.6684    77.208503    89.153392    81.460908     1996.977   0.16147338   0.16565874    0.2333442   0.56047632  0.031712345  0.032562173  0.070994252   0.13526877 
  428000   -1793162.7     15154.75     2609.727    77.208503    89.153392    81.460908     2008.811     0.163464   0.16670288   0.23068602   0.56085291  0.032967903   0.03331598  0.069177071   0.13546095 
  429000   -1793199.6    15117.394    1488.9298    77.208503    89.153392    81.460908    2003.8594   0.16204535   0.16532788   0.23325284   0.56062607  0.032538113  0.032093648  0.070001077   0.13463284 
  430000   -1793280.8    15073.031    1175.1914    77.208503    89.153392    81.460908    1997.9789   0.16186585   0.16700459   0.23048236    0.5593528  0.032030691  0.033075292  0.069838919    0.1349449 
  431000   -1793361.7    15139.591    1274.3566    77.208503    89.153392    81.460908    2006.8017   0.16352252   0.16746082   0.23223385    0.5632172  0.032537854  0.032881213    0.0709885   0.13640757 
  432000   -1793297.7    15122.973    1715.3967    77.208503    89.153392    81.460908    2004.5989   0.16286302   0.16706104   0.23359316   0.56351722  0.032616672  0.032479845  0.072354645   0.13745116 
  433000   -1793258.5     15073.69    1910.5546    77.208503    89.153392    81.460908    1998.0663   0.16474833   0.16712131   0.23581731   0.56768695  0.033535574  0.032083444  0.073671498   0.13929052 
  434000   -1793236.2    14991.556    1731.6538    77.208503    89.153392    81.460908    1987.1792   0.16240877   0.16660774   0.23477015   0.56378666  0.032490749  0.031613925  0.070814873   0.13491955 
  435000     -1793199    15083.061    2344.6009    77.208503    89.153392    81.460908    1999.3084   0.16215724    0.1693403   0.23497737   0.56647491  0.032317903   0.03333798  0.072527665   0.13818355 
  436000   -1793340.3    15163.627    1127.5757    77.208503    89.153392    81.460908    2009.9878    0.1619028    0.1672285   0.23238395   0.56151525  0.031732324  0.031741938  0.073866653   0.13734091 
  437000   -1793225.3    15149.972    1493.2706    77.208503    89.153392    81.460908    2008.1777   0.16274735   0.16861152   0.23364692    0.5650058  0.032022835  0.033137038  0.072267938   0.13742781 
  438000     -1793295    15059.841    1211.5264    77.208503    89.153392    81.460908    1996.2306   0.16383264   0.16764815   0.23472034   0.56620113  0.033385349  0.031483257  0.071674824   0.13654343 
  439000   -1793320.5    15111.512    1786.4937    77.208503    89.153392    81.460908    2003.0797   0.16369984   0.16751338   0.23560814   0.56682136  0.031758612   0.03208357  0.069262274   0.13310446 
  440000   -1793280.2    15004.391    1489.6304    77.208503    89.153392    81.460908    1988.8804   0.16557144   0.16792522   0.23355604   0.56705269  0.033260746  0.032147871  0.069321739   0.13473036 
  441000   -1793333.1    15089.537    891.97102    77.208503    89.153392    81.460908    2000.1668   0.16554937   0.16862512   0.23718981    0.5713643  0.032388754  0.032645035  0.069422317   0.13445611 
  442000     -1793245    15080.257    1870.4803    77.208503    89.153392    81.460908    1998.9367   0.16529352   0.16978189   0.23495687   0.57003228   0.03243641  0.033177619  0.067604077   0.13321811 
  443000   -1793262.1    15097.861    1242.2166    77.208503    89.153392    81.460908    2001.2702   0.16425532   0.16720956   0.23663651   0.56810139  0.031993249  0.032407901  0.070401943   0.13480309 
  444000   -1793289.8    15080.654    730.96542    77.208503    89.153392    81.460908    1998.9893   0.16458364   0.17028884   0.23408117   0.56895365  0.032810312  0.033979978  0.067244912    0.1340352 
  445000   -1793326.7    15060.885    1514.2957    77.208503    89.153392    81.460908    1996.3689   0.16549553   0.16846844   0.23673215   0.57069611  0.032007143   0.03249705  0.067084323   0.13158852 
  446000   -1793284.4    15114.821    2204.5257    77.208503    89.153392    81.460908    2003.5183      0.16403   0.17025511   0.23522103   0.56950613  0.032040667  0.032769605  0.067862566   0.13267284 
  447000   -1793246.7    15117.227    1873.1467    77.208503    89.153392    81.460908    2003.8372    0.1662146   0.16879363   0.23620807    0.5712163  0.033704449  0.033679235  0.070768729   0.13815241 
  448000   -1793307.8    15140.614    1429.1296    77.208503    89.153392    81.460908    2006.9373   0.16554008   0.16805675   0.23574419   0.56934102  0.033258176  0.032068384  0.065713877   0.13104044 
  449000   -1793314.8    15068.427    1338.3823    77.208503    89.153392    81.460908    1997.3687   0.16428305   0.16947427   0.23624305   0.57000037  0.033009026  0.033205664  0.068338774   0.13455346 
  450000   -1793258.3    15089.746    1872.2897    77.208503    89.153392    81.460908    2000.1946   0.16594237   0.17007566   0.23786401   0.57388204  0.032444191  0.031638698  0.068043703   0.13212659 
  451000   -1793274.1    15133.534     1626.852    77.208503    89.153392    81.460908    2005.9988    0.1649904   0.16981563   0.23666485   0.57147088  0.032376416  0.032381392  0.068014062   0.13277187 
  452000   -1793247.9    15067.615    1389.8784    77.208503    89.153392    81.460908     1997.261   0.16575288   0.17076049   0.23944865   0.57596201  0.031918169  0.032421942  0.069953129   0.13429324 
  453000   -1793192.1    15144.481    2117.8252    77.208503    89.153392    81.460908    2007.4498   0.16594929   0.17088034    0.2395155   0.57634513   0.03202014  0.031472493  0.072127932   0.13562057 
  454000   -1793211.5    15114.914    1953.8284    77.208503    89.153392    81.460908    2003.5306    0.1667927   0.17210391   0.23942953   0.57832614  0.033370079  0.033184889  0.070694511   0.13724948 
  455000   -1793236.9    14972.514    1601.4604    77.208503    89.153392    81.460908     1984.655   0.16568369   0.17181334    0.2411511   0.57864813  0.032282497  0.032766222  0.072453956   0.13750268 
  456000   -1793276.9    15006.981    1598.1902    77.208503    89.153392    81.460908    1989.2239    0.1662114   0.17191959   0.23781632   0.57594732  0.031988074  0.033032648  0.073592301   0.13861302 
  457000   -1793201.9    15065.059    1788.0251    77.208503    89.153392    81.460908    1996.9222   0.16733678   0.17143359    0.2413964   0.58016677  0.032106124  0.032475322  0.073300661   0.13788211 
  458000   -1793314.1    15165.283    456.65613    77.208503    89.153392    81.460908    2010.2073   0.16736983   0.17397658   0.24161006   0.58295646  0.032413528  0.031848755  0.075668872   0.13993115 
  459000   -1793216.6    15074.773    1837.1107    77.208503    89.153392    81.460908    1998.2099   0.16883643   0.17421467   0.24275526   0.58580637  0.032923702  0.033603054  0.073241368   0.13976812 
  460000   -1793275.2    15127.084    1482.3352    77.208503    89.153392    81.460908    2005.1438   0.16975219   0.17436753   0.24316193   0.58728166  0.032914681  0.032509277  0.075967271   0.14139123 
  461000   -1793280.7    15060.277    1195.3244    77.208503    89.153392    81.460908    1996.2883   0.17049465   0.17377039   0.24397666    0.5882417  0.032546692  0.033375255  0.074892526   0.14081447 
  462000   -1793263.4    15083.442    1980.3115    77.208503    89.153392    81.460908     1999.359   0.17057676   0.17400456   0.24361561   0.58819693  0.032747733  0.032418677  0.073760611   0.13892702 
  463000   -1793206.9     15084.63    1368.9841    77.208503    89.153392    81.460908    1999.5165   0.17045314   0.17512821   0.24582714    0.5914085  0.032309856   0.03347186  0.076350438   0.14213215 
  464000   -1793318.3    15096.411    646.70628    77.208503    89.153392    81.460908     2001.078   0.17086845   0.17484084   0.24503833   0.59074762  0.031387242  0.032149417  0.075324685   0.13886134 
  465000   -1793260.2    15143.906    2024.6719    77.208503    89.153392    81.460908    2007.3736   0.17170234   0.17438651   0.24463634   0.59072519   0.03248931  0.032418888  0.073665428   0.13857363 
  466000   -1793263.2    15082.176    1893.7798    77.208503    89.153392    81.460908    1999.1911   0.17108818   0.17576971   0.24803906   0.59489695  0.033394126  0.033669838  0.074406101   0.14147007 
  467000   -1793322.2    15038.977    1446.4287    77.208503    89.153392    81.460908     1993.465   0.17140526   0.17455146   0.24639025   0.59234696  0.033308059  0.032713634  0.074706419   0.14072811 
  468000   -1793194.6    14976.942    1342.2814    77.208503    89.153392    81.460908    1985.2421   0.17128031   0.17737768   0.24727664   0.59593463   0.03211955  0.033497972  0.073469812   0.13908733 
  469000   -1793244.6    15010.254     2070.954    77.208503    89.153392    81.460908    1989.6576   0.17292245   0.17492711   0.24839068   0.59624024  0.034082394  0.033323484  0.076588368   0.14399425 
  470000   -1793295.2    15115.869    1381.1143    77.208503    89.153392    81.460908    2003.6573   0.17238809   0.17668944    0.2481668   0.59724433  0.032920157  0.033055692  0.074066927   0.14004278 
  471000   -1793209.9    15115.232    1880.6594    77.208503    89.153392    81.460908    2003.5729   0.17319868    0.1765442   0.24875308   0.59849596  0.032187017  0.032498409   0.07399977    0.1386852 
  472000     -1793261    15178.564    2016.3444    77.208503    89.153392    81.460908    2011.9677   0.17403476   0.17864802    0.2474042   0.60008699  0.032084586  0.033614645  0.073577501   0.13927673 
  473000   -1793255.3    15087.362    1397.0706    77.208503    89.153392    81.460908    1999.8785   0.17327457    0.1794221   0.24921158   0.60190825  0.032567386  0.033487972   0.07371652   0.13977188 
  474000   -1793174.1    15112.682    2531.0724    77.208503    89.153392    81.460908    2003.2348   0.17261582   0.17789056    0.2499086   0.60041498  0.033181357  0.032735197  0.074393795   0.14031035 
  475000     -1793315    15108.333    1304.0716    77.208503    89.153392    81.460908    2002.6583   0.17490745   0.17937147   0.24991724   0.60419616  0.033087386  0.034391963  0.073726257   0.14120561 
  476000   -1793240.8    15080.126    1516.5821    77.208503    89.153392    81.460908    1998.9194    0.1734406   0.17911862   0.25054744   0.60310665  0.032434158  0.032422829  0.075261246   0.14011823 
  477000   -1793251.1    15202.547    1515.2417    77.208503    89.153392    81.460908    2015.1466   0.17240449   0.17990113   0.24937708    0.6016827  0.032223773  0.032885241  0.073755673   0.13886469 
  478000   -1793280.2    15090.091    1109.9086    77.208503    89.153392    81.460908    2000.2403   0.17467518   0.17978921    0.2561692   0.61063359  0.032157106  0.032901372  0.078815502   0.14387398 
  479000   -1793277.8    14979.681    1323.6771    77.208503    89.153392    81.460908    1985.6051   0.17610605   0.18214943   0.25164911   0.60990459  0.032419718  0.033517507  0.075254865   0.14119209 
  480000   -1793272.2    15107.364    1146.4151    77.208503    89.153392    81.460908    2002.5299   0.17569029   0.18169371   0.25234073   0.60972474  0.032532144  0.032933959  0.076123421   0.14158952 
  481000   -1793262.3      15095.9    1245.2137    77.208503    89.153392    81.460908    2001.0103   0.17445284   0.18337442   0.25198516   0.60981243  0.031845303  0.033445678  0.076338244   0.14162923 
  482000   -1793230.2    15114.237     1909.722    77.208503    89.153392    81.460908    2003.4409   0.17615224   0.18298588   0.24949995   0.60863807   0.03355163   0.03369972  0.077701459   0.14495281 
  483000   -1793294.5    15175.751    2185.5201    77.208503    89.153392    81.460908    2011.5949   0.17536076   0.18328128    0.2512984   0.60994044  0.032249718  0.033957286  0.075068909   0.14127591 
  484000   -1793260.1    15111.096    2076.0685    77.208503    89.153392    81.460908    2003.0246   0.17568907   0.18466872   0.25167647   0.61203425  0.032715395  0.033653259   0.07388285    0.1402515 
  485000   -1793187.3    15137.401    2004.4967    77.208503    89.153392    81.460908    2006.5114   0.17708528   0.18283609   0.25412034   0.61404171  0.033082401  0.032123295  0.077576889   0.14278259 
  486000   -1793267.6    15009.125    1470.3966    77.208503    89.153392    81.460908     1989.508   0.17619084    0.1848756   0.25217067   0.61323711   0.03174728  0.033143161  0.074735836   0.13962628 
  487000   -1793320.9    15133.032    1436.0123    77.208503    89.153392    81.460908    2005.9323   0.17803276   0.18294867    0.2547278   0.61570924  0.032947099  0.033210773    0.0761039   0.14226177 
  488000   -1793252.8    15050.419    1109.1864    77.208503    89.153392    81.460908    1994.9816   0.17672358   0.18463732   0.25554405   0.61690494  0.032193679   0.03249469  0.076316992   0.14100536 
  489000   -1793250.8    15041.375    1689.1909    77.208503    89.153392    81.460908    1993.7829   0.17968085   0.18653137   0.25909641   0.62530863  0.033032126  0.033137746  0.079098829    0.1452687 
  490000   -1793255.1    15113.209    1691.8169    77.208503    89.153392    81.460908    2003.3047   0.18066422   0.18456825   0.25402732   0.61925979   0.03284804  0.033544775  0.074723952   0.14111677 
  491000   -1793175.8    15155.077    2400.6872    77.208503    89.153392    81.460908    2008.8544   0.18106702   0.18619185   0.25792575   0.62518463   0.03313021  0.033905936  0.078949576   0.14598572 
  492000   -1793313.7     15129.51    1089.6942    77.208503    89.153392    81.460908    2005.4654   0.18076317   0.18549811   0.25468205   0.62094333  0.032907255  0.032716115  0.076585736   0.14220911 
  493000   -1793288.3     15116.07    1334.6613    77.208503    89.153392    81.460908    2003.6838   0.18025167   0.18753729   0.25497204   0.62276099  0.031576426  0.033743166  0.076924935   0.14224453 
  494000   -1793295.7    15027.904     2077.336    77.208503    89.153392    81.460908    1991.9972   0.18104908   0.18574712   0.25563008   0.62242628  0.031209068  0.032642902  0.074602994   0.13845496 
  495000   -1793204.2    15062.114    1880.5251    77.208503    89.153392    81.460908    1996.5318   0.18197954   0.18683266   0.25960804   0.62842024  0.032730021  0.032337233  0.075892389   0.14095964 
  496000   -1793259.3    15099.763    1578.3923    77.208503    89.153392    81.460908    2001.5224   0.18186419   0.18738475   0.25528017    0.6245291  0.032519375  0.033115172  0.075860593   0.14149514 
  497000   -1793313.1    15101.122    959.03424    77.208503    89.153392    81.460908    2001.7025   0.18300439   0.18836016      0.25955   0.63091456  0.032807361  0.032929565  0.078465314   0.14420224 
  498000   -1793305.5    15057.495    844.77271    77.208503    89.153392    81.460908    1995.9196   0.18285476   0.18828737   0.25935937    0.6305015  0.032045474  0.033057425  0.076859711   0.14196261 
  499000   -1793251.5     14995.79    1894.1264    77.208503    89.153392    81.460908    1987.7404   0.18269611   0.18896623   0.25883517   0.63049751  0.032369412  0.032914294  0.079974461   0.14525817 
  500000   -1793212.8    15044.793    1092.6476    77.208503    89.153392    81.460908    1994.2359   0.18431965   0.19058924   0.25949567   0.63440457  0.033214001  0.034072641  0.076493963    0.1437806 
  501000   -1793090.6    15019.843    2421.8099    77.208503    89.153392    81.460908    1990.9287   0.18350694   0.19047348   0.26111017   0.63509059  0.032651471  0.033074323  0.078279857   0.14400565 
  502000   -1793343.4    15130.281    1458.8773    77.208503    89.153392    81.460908    2005.5676   0.18482676   0.19018327    0.2614588   0.63646883  0.033028227  0.033921519  0.080136741   0.14708649 
  503000     -1793242    15145.493     1591.193    77.208503    89.153392    81.460908     2007.584   0.18465088   0.18931045   0.26186072   0.63582204  0.032928131  0.033009988  0.076532752   0.14247087 
  504000   -1793285.9    15089.428    1757.1764    77.208503    89.153392    81.460908    2000.1524   0.18522343   0.18976968     0.260916   0.63590912  0.033616141  0.032871946  0.079487895   0.14597598 
  505000   -1793276.5    15142.372     1363.642    77.208503    89.153392    81.460908    2007.1703    0.1844071   0.19006065   0.26010428   0.63457203  0.032824568  0.033577528  0.077213044   0.14361514 
  506000   -1793286.2    15050.478    1278.3686    77.208503    89.153392    81.460908    1994.9894    0.1835963   0.18990571   0.26153215   0.63503415  0.032476116  0.033151999  0.076833034   0.14246115 
  507000   -1793182.9     15116.68     1738.737    77.208503    89.153392    81.460908    2003.7647   0.18462358   0.19102786   0.26220365   0.63785509  0.032686674  0.033157654  0.079425735   0.14527006 
  508000     -1793201    15063.211    1545.8592    77.208503    89.153392    81.460908    1996.6773   0.18505124    0.1916585   0.26425218   0.64096192  0.032875755   0.03272482  0.079829625    0.1454302 
  509000     -1793326    15078.218    1036.5095    77.208503    89.153392    81.460908    1998.6665   0.18524476   0.19396221   0.26038072   0.63958769   0.03277632   0.03459318  0.077593643   0.14496314 
  510000   -1793209.8    14980.888    1541.2412    77.208503    89.153392    81.460908    1985.7651   0.18476721   0.19211483   0.26391341   0.64079546  0.032051651  0.032798555  0.080502806   0.14535301 
  511000   -1793332.5     15041.96    978.40459    77.208503    89.153392    81.460908    1993.8603   0.18330413   0.19199006    0.2618791   0.63717328  0.032339846  0.032994663  0.077336442   0.14267095 
  512000   -1793254.9    15076.474    1420.7732    77.208503    89.153392    81.460908    1998.4353   0.18524172   0.19281447   0.26341819   0.64147437  0.033035351   0.03339931  0.076477709   0.14291237 
  513000   -1793259.4    15104.847    987.04307    77.208503    89.153392    81.460908    2002.1962   0.18527322   0.19116756   0.26523696   0.64167774  0.032733585  0.031929747  0.077522647   0.14218598 
  514000   -1793245.9    15126.499    2049.3304    77.208503    89.153392    81.460908    2005.0663   0.18511748   0.19288541   0.26228776   0.64029066  0.033059084  0.032939722  0.077226601   0.14322541 
  515000   -1793229.5    15045.939    1778.1559    77.208503    89.153392    81.460908    1994.3878   0.18661554   0.19500473   0.26526662   0.64688688  0.031877043  0.033788558  0.078334942   0.14400054 
  516000   -1793292.1     15130.22    1588.7932    77.208503    89.153392    81.460908    2005.5596   0.18580436   0.19495469   0.26304752   0.64380657  0.032009394  0.033915739  0.078474452   0.14439959 
  517000   -1793252.2    15183.919     2107.174    77.208503    89.153392    81.460908    2012.6775   0.18826761   0.19342124   0.26541657   0.64710543  0.032840677  0.032797994   0.07631103    0.1419497 
  518000   -1793216.3    15119.599     1837.576    77.208503    89.153392    81.460908    2004.1517   0.18753229   0.19471562   0.26566987   0.64791778  0.032992073  0.033943505  0.080997628   0.14793321 
  519000     -1793250     15119.38    1627.6504    77.208503    89.153392    81.460908    2004.1227   0.18781355    0.1954128   0.26626233   0.64948867  0.032411401  0.032168711  0.077943096   0.14252321 
  520000   -1793258.1    15115.139    1602.0327    77.208503    89.153392    81.460908    2003.5605   0.18818976   0.19650852   0.26731386   0.65201214  0.032006446  0.033675819  0.081763568   0.14744583 
  521000   -1793303.4    15071.837    1604.7553    77.208503    89.153392    81.460908    1997.8206   0.18824815   0.19648749   0.26469657   0.64943221   0.03253366  0.033885017  0.078633683   0.14505236 
  522000   -1793256.4    15080.163    1563.6894    77.208503    89.153392    81.460908    1998.9242   0.18834046   0.19556762   0.26642028   0.65032836  0.032812837  0.032559229  0.078219467   0.14359153 
  523000   -1793338.1    15100.292    643.11344    77.208503    89.153392    81.460908    2001.5924   0.18848084   0.19511959   0.26207573   0.64567615  0.032529841  0.033333617  0.076036953   0.14190041 
  524000   -1793363.3    15062.861    756.81528    77.208503    89.153392    81.460908    1996.6308   0.18906015   0.19601545   0.26424814   0.64932373  0.032007354  0.033603869  0.078714168   0.14432539 
  525000   -1793181.1    15037.636    2264.9526    77.208503    89.153392    81.460908    1993.2873   0.18926914   0.19546619   0.26666705   0.65140238  0.031917315  0.033205498  0.079351569   0.14447438 
  526000     -1793286    14985.662    864.56316    77.208503    89.153392    81.460908    1986.3979   0.18964056   0.19439275   0.26366001   0.64769332  0.032081718  0.032696936  0.078321559   0.14310021 
  527000   -1793317.4    15104.926    1625.8188    77.208503    89.153392    81.460908    2002.2068   0.19112864   0.19758133   0.26582577   0.65453574  0.032530301   0.03414307  0.078518414   0.14519178 
  528000   -1793289.9    15135.644    1775.8231    77.208503    89.153392    81.460908    2006.2785   0.19091185    0.1963334   0.26708036   0.65432561  0.032447827  0.033232509  0.078051876   0.14373221 
  529000   -1793144.8    14960.796    1969.6471    77.208503    89.153392    81.460908    1983.1018   0.19132438   0.19743677   0.26952532   0.65828647  0.032617256   0.03342306  0.079076389   0.14511671 
  530000   -1793293.4    15025.191     982.6658    77.208503    89.153392    81.460908    1991.6376   0.19179247    0.1986403   0.26846649   0.65889926  0.032725229  0.032977831  0.079628488   0.14533155 
  531000   -1793310.8    15122.855    1485.6399    77.208503    89.153392    81.460908    2004.5832   0.19167066   0.19707016   0.26757414   0.65631495  0.032550719  0.032846049  0.081386398   0.14678317 
  532000   -1793144.6    15063.994    1907.5865    77.208503    89.153392    81.460908    1996.7811   0.19064923   0.19997663   0.26868454    0.6593104  0.033298667  0.033879289  0.081923141    0.1491011 
  533000   -1793283.3    15013.463    1222.3443    77.208503    89.153392    81.460908     1990.083   0.19210298   0.19618513    0.2700229   0.65831101  0.032473088  0.032850874  0.083706197   0.14903016 
  534000   -1793291.7    15065.081    1140.6053    77.208503    89.153392    81.460908    1996.9251   0.19400042   0.19991033   0.26911493   0.66302568  0.033641778  0.033212717  0.082440002    0.1492945 
  535000   -1793270.3    15151.681    2142.9946    77.208503    89.153392    81.460908    2008.4043   0.19251371   0.19969897   0.27102842    0.6632411  0.032562765  0.033309424  0.083283673   0.14915586 
  536000   -1793289.4    15049.501    1109.4721    77.208503    89.153392    81.460908      1994.86   0.19373787   0.19962666   0.27050065   0.66386517  0.032477003  0.033488077  0.083933219    0.1498983 
  537000   -1793323.3    15130.056    1323.4506    77.208503    89.153392    81.460908    2005.5378   0.19450144   0.20083242   0.27179775    0.6671316  0.033661827  0.033761822  0.083271752    0.1506954 
  538000   -1793263.9    15070.245    1651.7549    77.208503    89.153392    81.460908    1997.6096   0.19400741   0.19916896   0.27174869   0.66492507  0.033437551  0.034046723  0.083109997   0.15059427 
  539000     -1793244     15085.93    1262.1883    77.208503    89.153392    81.460908    1999.6887   0.19401315   0.20188173   0.27272309   0.66861796  0.032808893  0.034674287  0.081805938   0.14928912 
  540000   -1793254.1    15078.939    1455.0177    77.208503    89.153392    81.460908     1998.762   0.19472261   0.20067073   0.27322111   0.66861445  0.033698124  0.032183672  0.082800162   0.14868196 
  541000   -1793221.7    15067.252    2206.9244    77.208503    89.153392    81.460908     1997.213   0.19416068   0.20181211   0.27492027   0.67089306  0.032687096  0.033962813   0.08273013   0.14938004 
  542000   -1793249.8    15046.824    1592.2285    77.208503    89.153392    81.460908    1994.5051   0.19470957    0.2003923   0.27520261   0.67030448  0.032353106  0.033222976  0.080238322    0.1458144 
  543000     -1793260    15052.832    580.86391    77.208503    89.153392    81.460908    1995.3015   0.19484133    0.2011634   0.27515941   0.67116414  0.033232085  0.033856473  0.079419177   0.14650774 
  544000   -1793246.2    15032.274    1468.3081    77.208503    89.153392    81.460908    1992.5764   0.19730028   0.20038296   0.27482202   0.67250525  0.033093685  0.033388306  0.082656435   0.14913843 
  545000     -1793190    15114.245    1791.3469    77.208503    89.153392    81.460908    2003.4419   0.19544337   0.19962085   0.27729358   0.67235779  0.032453614  0.032416844  0.083234376   0.14810483 
  546000   -1793178.8    15067.073    1484.4593    77.208503    89.153392    81.460908    1997.1892   0.19743737   0.19979199   0.27603391   0.67326328  0.032984755  0.033323787  0.080024971   0.14633351 
  547000   -1793308.3    15084.967    945.64798    77.208503    89.153392    81.460908     1999.561   0.19649923   0.19921759    0.2775592   0.67327602  0.032052768  0.032869577  0.084365721   0.14928807 
  548000   -1793294.1     15044.39    1544.2888    77.208503    89.153392    81.460908    1994.1824   0.19712236   0.20074848   0.27841332   0.67628416  0.032509746  0.032447711  0.083258808   0.14821626 
  549000   -1793277.1    15158.284    1243.2183    77.208503    89.153392    81.460908    2009.2794   0.19926425   0.20082414   0.27676271    0.6768511  0.033824986  0.033012029  0.081639527   0.14847654 
  550000   -1793287.5    15028.944    1740.6508    77.208503    89.153392    81.460908     1992.135   0.19729597   0.20145972   0.27764095   0.67639664  0.032441842  0.032640753  0.084503224   0.14958582 
  551000   -1793303.6    15047.233    1447.0368    77.208503    89.153392    81.460908    1994.5593   0.19793889   0.20093752   0.27779334   0.67666975  0.032531144  0.032554307  0.079963768   0.14504922 
  552000   -1793280.9    15126.832    1626.2571    77.208503    89.153392    81.460908    2005.1104   0.19753349    0.1997945   0.27784843   0.67517642  0.033014957  0.032517724  0.082264487   0.14779717 
  553000     -1793258     15056.27     1183.274    77.208503    89.153392    81.460908    1995.7572   0.19956257   0.20126259   0.27896337   0.67978852  0.032659484  0.032626246   0.08210379   0.14738952 
  554000   -1793229.2    15171.457    1512.4684    77.208503    89.153392    81.460908    2011.0256   0.19816169   0.19986974   0.28264472   0.68067616  0.033189818  0.032721717  0.081108677   0.14702021 
  555000   -1793314.4    15123.755    1431.7875    77.208503    89.153392    81.460908    2004.7026   0.19832302   0.20276984   0.28372704   0.68481989  0.032138281   0.03272649  0.083253833    0.1481186 
  556000   -1793351.9    15046.056     842.8904    77.208503    89.153392    81.460908    1994.4033   0.19905463   0.20247544   0.28204815   0.68357822  0.032663138  0.032547438  0.080405918   0.14561649 
  557000   -1793286.7    15054.315    1925.6184    77.208503    89.153392    81.460908    1995.4981   0.19824934   0.20222055   0.28458146   0.68505135  0.032981038  0.033262384  0.083167427   0.14941085 
  558000   -1793210.6    15127.279    2197.4526    77.208503    89.153392    81.460908    2005.1697   0.19645499   0.20189099   0.28387786   0.68222384  0.031953644  0.033128502  0.081052716   0.14613486 
  559000   -1793235.1    15205.375     1668.025    77.208503    89.153392    81.460908    2015.5215   0.19915592   0.20314982   0.28528698   0.68759272  0.032867278   0.03190192  0.082100515   0.14686971 
  560000   -1793244.5    15195.977    1789.1517    77.208503    89.153392    81.460908    2014.2758   0.19929253   0.20296481   0.28599462   0.68825196  0.032144923   0.03229376  0.083104496   0.14754318 
  561000   -1793225.2    15140.487    2275.6081    77.208503    89.153392    81.460908    2006.9204   0.19992338   0.20333857   0.28504992   0.68831187  0.032464505  0.032203746  0.081789834   0.14645808 
  562000   -1793233.6     15151.34    894.84057    77.208503    89.153392    81.460908     2008.359   0.19994113   0.20204783   0.28507695   0.68706592  0.032971046  0.032528167  0.079450119   0.14494933 
  563000   -1793303.2    15096.934    1384.0394    77.208503    89.153392    81.460908    2001.1474   0.20034335   0.20454595   0.28431106   0.68920036  0.033062645  0.032985054  0.078811367   0.14485907 
  564000   -1793261.8    15081.461    1223.1824    77.208503    89.153392    81.460908    1999.0964   0.20166914   0.20429019   0.28541832   0.69137765  0.033215653  0.032994071  0.080529079    0.1467388 
  565000   -1793288.6     15172.83    1564.6292    77.208503    89.153392    81.460908    2011.2076   0.19923936   0.20580641   0.28607373    0.6911195  0.031788283  0.033205917  0.077699336   0.14269354 
  566000   -1793216.5    15163.586     1404.609    77.208503    89.153392    81.460908    2009.9823   0.20124383   0.20640678   0.28912196   0.69677257  0.032168795  0.033303169  0.081276446   0.14674841 
  567000   -1793321.6    15074.702    1600.7722    77.208503    89.153392    81.460908    1998.2005   0.20110822   0.20632126   0.28786255   0.69529204  0.033460945   0.03353931  0.079388343    0.1463886 
  568000   -1793296.4    15112.174    1709.7317    77.208503    89.153392    81.460908    2003.1675   0.20131138   0.20617609    0.2853953   0.69288276  0.032244295  0.033665185  0.080565604   0.14647508 
  569000   -1793264.6    15061.141    1159.7551    77.208503    89.153392    81.460908    1996.4029    0.2016055    0.2044986   0.28568588   0.69178998  0.032147256  0.032384961  0.078559748   0.14309196 
  570000   -1793275.8    15203.524     1889.048    77.208503    89.153392    81.460908    2015.2762   0.20289667   0.20566125   0.28470739   0.69326531  0.032032165  0.032650512   0.08042942    0.1451121 
  571000   -1793213.3    15090.539    1605.7781    77.208503    89.153392    81.460908    2000.2996   0.20362122   0.20694065   0.28463782   0.69519969  0.032388167  0.032772399  0.081112319   0.14627289 
  572000     -1793277    15143.623    1315.6366    77.208503    89.153392    81.460908    2007.3362    0.2039893   0.20623753   0.28630646   0.69653328  0.033043878  0.033362181  0.082492037    0.1488981 
  573000   -1793318.4    15138.608    939.46961    77.208503    89.153392    81.460908    2006.6713   0.20259685   0.20504269   0.28771896   0.69535849  0.032968424  0.032297906  0.082394505   0.14766084 
  574000   -1793258.1    15164.129    2039.5304    77.208503    89.153392    81.460908    2010.0543   0.20443626   0.20640345   0.28892968   0.69976939  0.032397564  0.033104386  0.081824227   0.14732618 
  575000     -1793261     15171.32    2062.4082    77.208503    89.153392    81.460908    2011.0075   0.20492059   0.20694904    0.2872974   0.69916703  0.032207009  0.032958909  0.083334476   0.14850039 
  576000   -1793254.2    15090.875    1210.6296    77.208503    89.153392    81.460908    2000.3442   0.20521919   0.20668355   0.28634374   0.69824648  0.032390821  0.033392045  0.081289335    0.1470722 
  577000   -1793363.7    15010.426    1100.4734    77.208503    89.153392    81.460908    1989.6805   0.20610806   0.20770264   0.28772967   0.70154036  0.033284514  0.033206374  0.081828113     0.148319 
  578000   -1793126.4    15119.271    2110.3582    77.208503    89.153392    81.460908    2004.1083   0.20662015    0.2071531   0.28803579   0.70180904  0.032135234  0.031825586  0.081226094   0.14518691 
  579000   -1793256.5    15141.812    1616.6161    77.208503    89.153392    81.460908    2007.0961   0.20913533   0.20771121    0.2870461   0.70389264  0.034037218  0.033527809  0.080734874    0.1482999 
  580000   -1793226.8    15090.489    2148.4352    77.208503    89.153392    81.460908    2000.2931   0.20651093   0.20799055   0.29039945   0.70490094  0.032367207  0.032690828   0.08178087    0.1468389 
  581000   -1793294.9    15078.367    1402.9211    77.208503    89.153392    81.460908    1998.6863   0.20628544   0.20762786   0.28851423   0.70242753  0.032003641  0.032499318  0.081008021   0.14551098 
  582000   -1793253.1    15063.453    1704.4441    77.208503    89.153392    81.460908    1996.7094   0.20850229   0.20947189   0.29438766   0.71236184  0.033587132  0.032762365  0.080681745   0.14703124 
  583000   -1793311.7    15027.102     1352.268    77.208503    89.153392    81.460908    1991.8909   0.20887063   0.20967218   0.29180853   0.71035134  0.032265417  0.032655596  0.080731357   0.14565237 
  584000     -1793330    15105.685    1140.3911    77.208503    89.153392    81.460908    2002.3073   0.20960295   0.20889618    0.2902299   0.70872903  0.032860961  0.033080951  0.079258875   0.14520079 
  585000   -1793181.5    15150.419    2007.6961    77.208503    89.153392    81.460908     2008.237   0.20908502   0.21028363   0.29181145    0.7111801  0.032829802  0.032505566  0.080819151   0.14615452 
  586000   -1793328.9    15046.234    333.79532    77.208503    89.153392    81.460908    1994.4269   0.21084386   0.21027804   0.29162444   0.71274634  0.032187867  0.033506664  0.079731133   0.14542566 
  587000   -1793272.5    15089.577    1388.0755    77.208503    89.153392    81.460908    2000.1721   0.20950314   0.20941514   0.29266938   0.71158765  0.033118571  0.032862442  0.081413494   0.14739451 
  588000   -1793167.2    15133.918    1631.8461    77.208503    89.153392    81.460908    2006.0497   0.21188164   0.21212479   0.29430016   0.71830658   0.03219586  0.033342149  0.079101942   0.14463995 
  589000   -1793212.2    15101.463    1697.1956    77.208503    89.153392    81.460908    2001.7476   0.20991889   0.21054976   0.29823485    0.7187035  0.032604496  0.032568706   0.08167042   0.14684362 
  590000   -1793322.7    15090.539    773.74265    77.208503    89.153392    81.460908    2000.2997   0.21198268   0.20998407   0.29294248   0.71490923  0.033111785  0.032820922  0.078597024   0.14452973 
  591000   -1793173.2    15121.665    2235.4265    77.208503    89.153392    81.460908    2004.4256   0.21104613   0.21187068   0.29598216   0.71889897  0.033231311  0.033346737  0.080421722   0.14699977 
  592000     -1793209    15069.955    1298.0879    77.208503    89.153392    81.460908    1997.5713   0.21303162   0.20970746   0.29580001   0.71853908  0.033434453  0.033559397  0.081599677   0.14859353 
  593000   -1793219.9    15112.485    1625.3992    77.208503    89.153392    81.460908    2003.2087   0.21262845   0.21169009   0.30002426   0.72434281  0.032966724  0.033253604    0.0820888   0.14830913 
  594000   -1793275.8    15084.044    1684.4939    77.208503    89.153392    81.460908    1999.4388   0.21223531   0.21118754   0.29526828   0.71869113  0.032836781  0.032610641   0.07892424   0.14437166 
  595000   -1793256.8     15111.67    1565.6896    77.208503    89.153392    81.460908    2003.1006   0.21100804   0.21221533   0.29727593    0.7204993    0.0312621  0.033370543  0.080639841   0.14527248 
  596000   -1793199.1    15086.424    1460.5294    77.208503    89.153392    81.460908    1999.7543   0.21176973   0.21292647   0.29783585   0.72253205  0.033030923  0.034162442  0.081133212   0.14832658 
  597000   -1793254.7    15056.888     1521.884    77.208503    89.153392    81.460908    1995.8391   0.21338303   0.21203812   0.29658075   0.72200189  0.033152605   0.03282694  0.080018969   0.14599851 
  598000   -1793211.6    15079.131    1534.3009    77.208503    89.153392    81.460908    1998.7875   0.21293892   0.21151574    0.2977234   0.72217806  0.032831151  0.033470072  0.081543367   0.14784459 
  599000   -1793232.6    15032.024    1442.4453    77.208503    89.153392    81.460908    1992.5433   0.21188296   0.21347096   0.30020458    0.7255585  0.032274155  0.033759376  0.081410485   0.14744402 
  600000   -1793228.6    15124.205    1828.7675    77.208503    89.153392    81.460908    2004.7622    0.2155886   0.21310135   0.29834533   0.72703529  0.032312222  0.032947411  0.081091994   0.14635163 
  601000   -1793247.6    15080.899    1531.9934    77.208503    89.153392    81.460908    1999.0218    0.2146963   0.21405314   0.30324963   0.73199907  0.031693984  0.032682977  0.084000722   0.14837768 
  602000   -1793182.3    15096.274    1789.4103    77.208503    89.153392    81.460908    2001.0598   0.21722438   0.21715397   0.30036362   0.73474196  0.032835443  0.033983756  0.082413418   0.14923262 
  603000   -1793255.5      15082.6    1510.4245    77.208503    89.153392    81.460908    1999.2473   0.21676996   0.21623896   0.30312773   0.73613664  0.032929382  0.032713782  0.082653581   0.14829674 
  604000   -1793282.6    15086.656     1365.577    77.208503    89.153392    81.460908     1999.785    0.2167451   0.21544597   0.30803394     0.740225  0.032280188  0.032472482  0.085656933    0.1504096 
  605000   -1793316.1    15081.266    961.78855    77.208503    89.153392    81.460908    1999.0706   0.21957672   0.21629117    0.3073989   0.74326679  0.031930718  0.033464554  0.084155458   0.14955073 
  606000   -1793144.5    15169.492    1864.7699    77.208503    89.153392    81.460908    2010.7652   0.22078233    0.2178365    0.3086526   0.74727143  0.033562307  0.033349157  0.083847849   0.15075931 
  607000   -1793284.5    15067.921    1555.6133    77.208503    89.153392    81.460908    1997.3016    0.2204538    0.2184301   0.30976342   0.74864732  0.032900106  0.032628996  0.084100372   0.14962947 
  608000   -1793320.4    15085.265    671.89394    77.208503    89.153392    81.460908    1999.6006   0.21929229   0.21847659   0.31070314   0.74847202  0.031539862  0.033437095  0.083597338   0.14857429 
  609000   -1793308.1    15049.359    879.64228    77.208503    89.153392    81.460908    1994.8412   0.22060513   0.21896796   0.31118219   0.75075528  0.031819507  0.033857256   0.08378468   0.14946144 
  610000   -1793309.4    14991.538    404.84449    77.208503    89.153392    81.460908    1987.1768   0.22218553   0.21818002   0.31234947   0.75271502  0.033269795  0.032879675  0.085623735   0.15177321 
  611000   -1793247.5    15150.785    1646.9284    77.208503    89.153392    81.460908    2008.2855   0.22258252   0.21745771   0.31048333   0.75052356  0.033150934  0.033171176  0.084500518   0.15082263 
  612000   -1793234.1    15201.182    1890.5568    77.208503    89.153392    81.460908    2014.9658   0.22149201   0.21784175   0.31196198   0.75129574   0.03169401   0.03363768  0.084444676   0.14977637 
  613000   -1793271.7    15082.232    1765.7777    77.208503    89.153392    81.460908    1999.1986   0.22222361   0.21710813   0.31141224   0.75074398  0.032922969  0.033194559  0.082654731   0.14877226 
  614000   -1793168.7    15066.766     1667.295    77.208503    89.153392    81.460908    1997.1484   0.22152947   0.21799975   0.31200045   0.75152967  0.032571911  0.033131833  0.081429128   0.14713287 
  615000   -1793298.9    15032.083    396.08221    77.208503    89.153392    81.460908    1992.5511   0.22290584   0.22020587   0.31327363   0.75638534   0.03347348  0.033817265  0.083279492   0.15057024 
  616000   -1793242.2    15061.025    911.20843    77.208503    89.153392    81.460908    1996.3875   0.22126185   0.22093419   0.31316427    0.7553603   0.03243917  0.034257177   0.08135558   0.14805193 
  617000   -1793334.4    15084.773    1090.7326    77.208503    89.153392    81.460908    1999.5353   0.21863891   0.21912117   0.31464011    0.7524002  0.031343981  0.032819347  0.083583774    0.1477471 
  618000   -1793254.7    15205.558    1542.1636    77.208503    89.153392    81.460908    2015.5458   0.22309395   0.22087086   0.31876301   0.76272782  0.033181622  0.033038168  0.084360008    0.1505798 
  619000   -1793324.8    15055.537    1032.8978    77.208503    89.153392    81.460908      1995.66   0.22104184   0.22339132   0.31805483   0.76248799  0.031749686  0.032479021  0.083642186   0.14787089 
  620000   -1793148.3     15091.75    1586.4621    77.208503    89.153392    81.460908    2000.4602   0.22201643   0.22273691   0.31794102   0.76269436  0.032197083   0.03239685  0.083811344   0.14840528 
  621000   -1793214.1    15123.527    1980.1139    77.208503    89.153392    81.460908    2004.6724   0.22176157   0.22302667   0.32099098   0.76577922  0.032311761  0.032883227  0.084733703   0.14992869 
  622000   -1793288.7    15113.988    1646.0135    77.208503    89.153392    81.460908    2003.4079   0.22134213   0.22258837   0.32063437   0.76456487  0.032881659  0.032794134  0.084183224   0.14985902 
  623000   -1793205.6    15157.239    1757.4211    77.208503    89.153392    81.460908     2009.141   0.22460083   0.22369295   0.31986868   0.76816245  0.032693481  0.032551846  0.082777482   0.14802281 
  624000   -1793245.4    15207.592    1552.2655    77.208503    89.153392    81.460908    2015.8155   0.22299939   0.22374623   0.32229027   0.76903589  0.033048211  0.031377126  0.086300077   0.15072541 
  625000   -1793250.5    15032.048    1409.7989    77.208503    89.153392    81.460908    1992.5465   0.22278038   0.22574526   0.32006353   0.76858917  0.032841502  0.033665638  0.085057871   0.15156501 
  626000   -1793238.9    15059.861    1544.1917    77.208503    89.153392    81.460908    1996.2332    0.2237841   0.22528807   0.32109914    0.7701713  0.032297342  0.032911143  0.087686891   0.15289538 
  627000   -1793197.5    15107.002    2101.7832    77.208503    89.153392    81.460908    2002.4819   0.22487354   0.22600903   0.32211193    0.7729945    0.0328485  0.033150241   0.08462955   0.15062829 
  628000   -1793241.4    15130.425    1673.7229    77.208503    89.153392    81.460908    2005.5867   0.22516999   0.22680657   0.32242977   0.77440633  0.033966372  0.033078154  0.085126623   0.15217115 
  629000   -1793227.5    15046.784     1576.509    77.208503    89.153392    81.460908    1994.4998    0.2231016   0.22547885   0.32215151   0.77073196  0.031383299  0.032802738  0.086300457   0.15048649 
  630000   -1793300.7    15118.944    1654.3936    77.208503    89.153392    81.460908    2004.0648   0.22507443    0.2257396   0.32206189   0.77287593  0.031861936  0.032456888  0.085120511   0.14943934 
  631000   -1793176.7    15149.042    1400.2978    77.208503    89.153392    81.460908    2008.0545   0.22518629   0.22655041   0.32163152   0.77336822  0.032993971  0.032297954  0.083362347   0.14865427 
  632000   -1793240.8     15086.46    1468.8717    77.208503    89.153392    81.460908     1999.759   0.22474525   0.22710553   0.32244278   0.77429357  0.031878548  0.032555965  0.084545358   0.14897987 
  633000   -1793276.5    15148.265    1271.0466    77.208503    89.153392    81.460908    2007.9514   0.22497914   0.22820162   0.32203016   0.77521092  0.031765922  0.032637427  0.083063529   0.14746688 
  634000   -1793264.6    15136.017    1276.6229    77.208503    89.153392    81.460908    2006.3279   0.22501265   0.22928401   0.32295591   0.77725258  0.031663993   0.03335733  0.083884502   0.14890582 
  635000   -1793274.1    15090.737    895.55041    77.208503    89.153392    81.460908    2000.3259   0.22442986   0.22914947   0.32635837    0.7799377  0.031378728  0.032812906  0.086235482   0.15042712 
  636000     -1793222    15029.339    1742.8104    77.208503    89.153392    81.460908    1992.1874   0.22784252   0.23020596   0.32254734   0.78059582  0.033407275  0.033070035  0.082644858   0.14912217 
  637000   -1793155.9     15107.52    2007.6163    77.208503    89.153392    81.460908    2002.5506   0.22759665   0.22907076   0.32676055   0.78342796  0.033058329  0.032567547  0.087779946   0.15340582 
  638000   -1793276.6    15078.673    1053.1734    77.208503    89.153392    81.460908    1998.7268   0.22758855   0.23134493   0.32711203   0.78604552  0.032621803  0.032909315  0.086951351   0.15248247 
  639000   -1793207.6     15162.56    1203.4108    77.208503    89.153392    81.460908    2009.8463   0.22873529   0.23034321   0.32738303   0.78646153  0.031894297  0.033357394   0.08479558   0.15004727 
  640000   -1793296.1    15110.171    1188.8913    77.208503    89.153392    81.460908     2002.902   0.22943759   0.23005607   0.32489937   0.78439303  0.033048724  0.031916199  0.083592413   0.14855734 
  641000   -1793244.7    15065.065     1412.788    77.208503    89.153392    81.460908     1996.923   0.22938353   0.23070897   0.32725374   0.78734624   0.03212704  0.033274886   0.08702566   0.15242759 
  642000     -1793411    15092.152    483.13241    77.208503    89.153392    81.460908    2000.5135   0.22842133   0.23106403    0.3278298   0.78731516  0.032804675  0.032420876  0.085367209   0.15059276 
  643000   -1793184.9    15102.427    1608.2166    77.208503    89.153392    81.460908    2001.8754   0.22846295   0.23194869    0.3284233   0.78883494  0.031916713  0.033631406  0.086708514   0.15225663 
  644000   -1793290.7    15089.276    1646.4235    77.208503    89.153392    81.460908    2000.1323   0.22990059   0.23172929   0.32958955   0.79121944  0.032814767  0.033677286   0.08630124   0.15279329 
  645000   -1793260.4    15048.527    1379.1276    77.208503    89.153392    81.460908    1994.7308   0.22960829   0.23373426   0.33036725    0.7937098  0.033789343  0.034123834  0.087231234   0.15514441 
  646000     -1793298    15017.752    1809.9675    77.208503    89.153392    81.460908    1990.6515   0.23012924    0.2306721   0.32832262   0.78912396   0.03272879  0.033073219  0.085347615   0.15114962 
  647000   -1793347.9     15097.06    1253.0737    77.208503    89.153392    81.460908     2001.164   0.22947954   0.23240696    0.3315121    0.7933986  0.031953489  0.032748332  0.087237428   0.15193925 
  648000   -1793204.2    15079.139    1863.0568    77.208503    89.153392    81.460908    1998.7886   0.23033272   0.23274062    0.3317819   0.79485524  0.032335953  0.033433629  0.087812677   0.15358226 
  649000   -1793200.9    15074.156     1661.547    77.208503    89.153392    81.460908    1998.1281   0.23207508   0.23267509   0.32927078   0.79402094  0.032503594   0.03320437  0.086764005   0.15247197 
  650000   -1793308.7    15082.662     1382.583    77.208503    89.153392    81.460908    1999.2556   0.23224018   0.23260986   0.33154031   0.79639035  0.032087994  0.032627404  0.085984078   0.15069948 
  651000   -1793281.1    15062.848    973.98993    77.208503    89.153392    81.460908    1996.6292   0.23183927   0.22987014   0.33299406   0.79470346   0.03224166  0.032232847  0.084010091    0.1484846 
  652000   -1793305.1    15081.029    999.13375    77.208503    89.153392    81.460908    1999.0392   0.23172136   0.23329958    0.3298761   0.79489703  0.031892649  0.033479406  0.084889448    0.1502615 
  653000   -1793184.1    15117.907    1907.4082    77.208503    89.153392    81.460908    2003.9274   0.23296702   0.23221609   0.33196262   0.79714573  0.032761283  0.033244863  0.085454428   0.15146057 
  654000   -1793229.3    15134.937    1691.6202    77.208503    89.153392    81.460908    2006.1848   0.23176395   0.23110667   0.33333905   0.79620967  0.032568621  0.032753291  0.088820362   0.15414227 
  655000   -1793298.2    15155.684    1265.5331    77.208503    89.153392    81.460908    2008.9349   0.23220129     0.231271   0.33348588   0.79695818   0.03245209  0.032857493    0.0861012   0.15141078 
  656000   -1793227.8    15048.582    1534.0638    77.208503    89.153392    81.460908    1994.7381   0.23052716   0.23214372   0.33271513   0.79538601  0.030838036  0.032086434   0.08427043    0.1471949 
  657000   -1793249.2    15110.993    1943.0357    77.208503    89.153392    81.460908    2003.0109   0.23251072   0.23272709   0.33224596   0.79748377  0.033115059  0.032814279  0.086859786   0.15278912 
  658000   -1793277.3    15136.948    1575.9916    77.208503    89.153392    81.460908    2006.4513   0.23150743    0.2333693   0.33196621   0.79684293   0.03205738  0.032838989  0.084449928    0.1493463 
  659000   -1793281.3    15114.216    1488.7905    77.208503    89.153392    81.460908    2003.4381    0.2320874   0.23573578   0.33170751   0.79953069   0.03256136   0.03331029  0.086381738   0.15225339 
  660000   -1793215.4     15056.64    1319.3116    77.208503    89.153392    81.460908    1995.8062   0.23230479   0.23488694    0.3304062   0.79759793  0.031505408  0.032720373  0.084569459   0.14879524 
  661000   -1793253.7    15099.157    1855.7523    77.208503    89.153392    81.460908     2001.442   0.23389791   0.23516175   0.33069841   0.79975807  0.033175076  0.033047103  0.085984708   0.15220689 
  662000   -1793226.8    15060.461    1251.1398    77.208503    89.153392    81.460908    1996.3128   0.23278945   0.23864513    0.3317935   0.80322808  0.032538955  0.033615479  0.086137358   0.15229179 
  663000   -1793340.5    15148.996    1583.7642    77.208503    89.153392    81.460908    2008.0483   0.23425825   0.23749167   0.33465488    0.8064048  0.032320094  0.032847805  0.085010789   0.15017869 
  664000   -1793200.8     15095.21    2291.7866    77.208503    89.153392    81.460908    2000.9188    0.2344763   0.23772431   0.33350866   0.80570927  0.032349043  0.033243566  0.086290573   0.15188318 
  665000   -1793309.5    15126.937    955.76234    77.208503    89.153392    81.460908    2005.1243   0.23414131   0.23653504   0.33166835   0.80234471  0.031612021  0.032639262  0.085110504   0.14936179 
  666000   -1793221.2    15059.819    1612.6014    77.208503    89.153392    81.460908    1996.2276   0.23496826   0.23700941   0.33140883    0.8033865  0.032622257  0.032670134  0.086662103   0.15195449 
  667000   -1793270.6    15124.347    1796.4816    77.208503    89.153392    81.460908    2004.7811   0.23616891   0.23763019   0.33236872   0.80616782  0.033699872  0.033291099  0.087169309   0.15416028 
  668000   -1793286.1    15056.893    898.49087    77.208503    89.153392    81.460908    1995.8398   0.23481253   0.23771466   0.33531548   0.80784267  0.032118908   0.03251687  0.085420603   0.15005638 
  669000   -1793227.9    15095.502    1307.5176    77.208503    89.153392    81.460908    2000.9576   0.23767549   0.23878815   0.33606907   0.81253271  0.033138963  0.032386785  0.084102963   0.14962871 
  670000   -1793257.7    15117.688     1302.858    77.208503    89.153392    81.460908    2003.8984   0.23502515   0.23858989   0.33601404   0.80962908  0.032148938  0.033465113  0.085105921   0.15071997 
  671000   -1793248.5    15097.893    1833.3719    77.208503    89.153392    81.460908    2001.2744   0.23690631   0.23838091   0.33746695   0.81275417  0.032626919  0.033136009  0.084570814   0.15033374 
  672000   -1793325.9    15095.595     907.2395    77.208503    89.153392    81.460908    2000.9698    0.2364572   0.23916018   0.33561835   0.81123573  0.032583469  0.032694573   0.08479217   0.15007021 
  673000     -1793315    15184.167     1259.794    77.208503    89.153392    81.460908    2012.7103   0.23649326   0.23977643    0.3389006    0.8151703  0.032003981   0.03256136  0.086036376   0.15060172 
  674000   -1793263.1    15163.873    1507.1406    77.208503    89.153392    81.460908    2010.0204   0.23600096   0.23727819   0.33603773   0.80931688  0.031863109   0.03261722  0.083833092   0.14831342 
  675000   -1793138.4     15144.58    2165.5286    77.208503    89.153392    81.460908     2007.463   0.23889069   0.23900767   0.33645906   0.81435742  0.032960917  0.032145433  0.086936291   0.15204264 
  676000   -1793312.5    15029.933    1664.7087    77.208503    89.153392    81.460908    1992.2662   0.23704348    0.2388791   0.33703084   0.81295341  0.032747441  0.032239387  0.084548402   0.14953523 
  677000   -1793181.9    15041.688    1664.3868    77.208503    89.153392    81.460908    1993.8243   0.23748791   0.23995053   0.34167397    0.8191124  0.032626069  0.032115308  0.086996203   0.15173758 
  678000   -1793158.2    15080.626     2443.622    77.208503    89.153392    81.460908    1998.9857   0.23726989   0.24037841    0.3382763   0.81592459  0.032355004  0.033636726  0.083624704   0.14961643 
  679000   -1793205.6    15087.022    2311.4115    77.208503    89.153392    81.460908    1999.8334   0.23744957   0.23887959   0.34224319   0.81857235  0.033479804  0.032457167  0.087000064   0.15293703 
  680000   -1793266.4    15096.649    1740.0959    77.208503    89.153392    81.460908    2001.1096   0.23670868   0.24077618    0.3405089   0.81799376  0.033272884   0.03273842  0.085777482   0.15178879 
  681000   -1793233.6    15072.885    1526.7041    77.208503    89.153392    81.460908    1997.9595   0.23586395   0.24141644   0.33886151    0.8161419  0.031792482  0.031799392  0.084083088   0.14767496 
  682000   -1793092.3    15096.134    2352.2437    77.208503    89.153392    81.460908    2001.0413   0.23796174    0.2422823   0.34004179   0.82028582  0.033328221  0.033655498  0.089284839   0.15626856 
  683000   -1793202.6    15069.024     1504.626    77.208503    89.153392    81.460908    1997.4478   0.23845215    0.2414023   0.34319485    0.8230493  0.031429513   0.03248417  0.087844252   0.15175793 
  684000     -1793248    15208.174    2069.7223    77.208503    89.153392    81.460908    2015.8926   0.23786469   0.24079306   0.34185851   0.82051626  0.032936058  0.033445165  0.088290636   0.15467186 
  685000   -1793193.3    15077.463    1892.3752    77.208503    89.153392    81.460908    1998.5664   0.23932553   0.24038836   0.34192116   0.82163505   0.03255379  0.031972463  0.087871361   0.15239761 
  686000   -1793312.5     15107.08    960.33627    77.208503    89.153392    81.460908    2002.4922   0.23944399   0.24073858    0.3451613   0.82534387  0.032210686  0.032220708   0.08980266   0.15423405 
  687000   -1793264.4    15011.944    1632.1013    77.208503    89.153392    81.460908    1989.8816   0.24035343   0.24151531    0.3403773   0.82224605  0.033406679  0.032929991  0.088018453   0.15435512 
  688000   -1793205.2    15042.089    1082.2303    77.208503    89.153392    81.460908    1993.8775   0.23870597   0.24214845   0.34486996   0.82572439  0.032956111  0.032640005  0.089114567   0.15471068 
  689000   -1793178.7    15015.785    1862.4716    77.208503    89.153392    81.460908    1990.3908   0.23911925   0.24096544   0.34553545   0.82562014   0.03257089  0.032162619  0.089604504   0.15433801 
  690000   -1793194.1     15078.53    1887.8355    77.208503    89.153392    81.460908    1998.7078   0.23906721   0.24231557   0.34615236   0.82753514  0.031916153  0.033252243  0.089780062   0.15494846 
  691000   -1793188.8     15169.32    2183.9269    77.208503    89.153392    81.460908    2010.7423   0.24014027   0.24300091   0.34860502   0.83174621  0.032819349  0.032976662   0.09178813   0.15758414 
  692000   -1793198.8    15066.111    2428.1619    77.208503    89.153392    81.460908    1997.0616   0.23988595   0.24146986   0.34575771   0.82711352  0.032810337  0.032080448  0.089412649   0.15430343 
  693000   -1793308.8    15153.679    910.90468    77.208503    89.153392    81.460908     2008.669   0.23933396   0.24332407   0.34571665   0.82837468  0.032487164  0.032587791   0.08989882   0.15497377 
  694000   -1793256.6    15037.931    1215.5652    77.208503    89.153392    81.460908    1993.3263   0.23950357   0.24345738   0.34630915   0.82927011  0.032417474  0.033092414  0.089113923   0.15462381 
  695000   -1793289.3     15086.45    763.27561    77.208503    89.153392    81.460908    1999.7577   0.23950111   0.24489567   0.34539816   0.82979494  0.032151411  0.032645151  0.087721556   0.15251812 
  696000     -1793292    15088.221    1170.7315    77.208503    89.153392    81.460908    1999.9925   0.23857896   0.24507003   0.34633572   0.82998471  0.031486898  0.033959614  0.086874039   0.15232055 
  697000   -1793228.9    15188.057    1875.2271    77.208503    89.153392    81.460908     2013.226   0.23885836   0.24546685   0.34954149    0.8338667  0.032411014  0.033388178  0.089413373   0.15521256 
  698000   -1793285.5    15045.382    1448.4289    77.208503    89.153392    81.460908     1994.314   0.24244283   0.24699594    0.3488552   0.83829396  0.032932475   0.03311403  0.088024751   0.15407126 
  699000   -1793328.8    15004.282     1568.606    77.208503    89.153392    81.460908     1988.866   0.24242933   0.24710006   0.34966041    0.8391898  0.033334594  0.033281155  0.089804796   0.15642055 
  700000   -1793314.5    15073.117    949.23938    77.208503    89.153392    81.460908    1997.9903   0.24393003   0.24819564     0.347289   0.83941467  0.033379862  0.032757795  0.087420886   0.15355854 
  701000   -1793225.2    15006.114    1311.0638    77.208503    89.153392    81.460908    1989.1089   0.24114802   0.24651305   0.34787634   0.83553742  0.032764387  0.032466452  0.087340336   0.15257118 
  702000   -1793247.9    15117.402    1619.4398    77.208503    89.153392    81.460908    2003.8605   0.24370637   0.24638431   0.34982068   0.83991137  0.033080613  0.033173454  0.088463688   0.15471775 
  703000   -1793265.7    15054.676    1099.2823    77.208503    89.153392    81.460908     1995.546   0.24355021   0.24617032   0.34874039   0.83846092  0.032469185  0.031561162  0.087470949    0.1515013 
  704000   -1793205.3    15096.765    1593.3233    77.208503    89.153392    81.460908    2001.1249   0.24271346   0.24650029      0.35028   0.83949375  0.032502905  0.032181646  0.088001539   0.15268609 
  705000   -1793239.1    15079.831    1800.2004    77.208503    89.153392    81.460908    1998.8803   0.24464119    0.2459941   0.35136302   0.84199831  0.032649919  0.033074953  0.088560969   0.15428584 
  706000   -1793259.1     15191.43    1301.6841    77.208503    89.153392    81.460908    2013.6731   0.24484663    0.2465189   0.35239349   0.84375903  0.032527335  0.032561594  0.089547322   0.15463625 
  707000     -1793288    15098.042    1609.5165    77.208503    89.153392    81.460908    2001.2943   0.24187549   0.24842557   0.35145765   0.84175871  0.032560538  0.033038278  0.089428049   0.15502687 
  708000   -1793161.3    14970.856     2130.162    77.208503    89.153392    81.460908    1984.4353   0.24460521   0.24745605   0.35482431   0.84688557  0.033385762  0.033399105  0.088088556   0.15487342 
  709000   -1793322.8    15151.693    1470.5863    77.208503    89.153392    81.460908    2008.4058   0.24389596   0.24870763   0.35437788   0.84698147  0.033094247  0.032464967  0.090212396   0.15577161 
  710000   -1793212.3    15134.008     1535.199    77.208503    89.153392    81.460908    2006.0617   0.24416459   0.24821708   0.35510144   0.84748311  0.032369418  0.032621142  0.091282384   0.15627294 
  711000   -1793216.5    15069.313    1284.3607    77.208503    89.153392    81.460908    1997.4861   0.24628741   0.24805148   0.35726393   0.85160282  0.031949573  0.032431865  0.089238519   0.15361996 
  712000   -1793311.4    15026.308    797.50209    77.208503    89.153392    81.460908    1991.7856   0.24676455   0.24741382     0.357781   0.85195936   0.03350933  0.032829337  0.092460736    0.1587994 
  713000   -1793280.6    15088.666    1311.3006    77.208503    89.153392    81.460908    2000.0514   0.24701476   0.24843489   0.35987966   0.85532931  0.032249834  0.032933064   0.08762965   0.15281255 
  714000   -1793275.7    15101.824    1390.4257    77.208503    89.153392    81.460908    2001.7955   0.24890403   0.24811911   0.36199193   0.85901507  0.033272155  0.033224673  0.089896598   0.15639343 
  715000   -1793339.7    15103.796    1840.7273    77.208503    89.153392    81.460908    2002.0569   0.24818585   0.24773676   0.35895094   0.85487355  0.032999358  0.032810986  0.090126982   0.15593733 
  716000     -1793203    15130.475    1969.0521    77.208503    89.153392    81.460908    2005.5933    0.2467343   0.24907912   0.35747077   0.85328418  0.032439628  0.033885578  0.091552256   0.15787746 
  717000   -1793256.6    15064.133    1487.4318    77.208503    89.153392    81.460908    1996.7994   0.24845644   0.24920671   0.35737137   0.85503453  0.032480621  0.031856018  0.092567899   0.15690454 
  718000   -1793234.9     15119.75    1496.1508    77.208503    89.153392    81.460908    2004.1717   0.24684786   0.24934906   0.35915859   0.85535551  0.031834013  0.032755184  0.093076756   0.15766595 
  719000   -1793277.7    15108.309    1178.9938    77.208503    89.153392    81.460908    2002.6552   0.24847247   0.24725177   0.35810962   0.85383386  0.031845147  0.033372117  0.093095234    0.1583125 
  720000   -1793280.8    15054.986    1151.5109    77.208503    89.153392    81.460908    1995.5869   0.24823083   0.24774991   0.35708166   0.85306241  0.032871584  0.033220302  0.092177091   0.15826898 
  721000   -1793232.6    15053.887    1026.4773    77.208503    89.153392    81.460908    1995.4414   0.24954617   0.24942235    0.3587456   0.85771412  0.033468477  0.032770376  0.089953632   0.15619248 
  722000   -1793279.1    15163.282    1989.9459    77.208503    89.153392    81.460908     2009.942    0.2486115   0.25123405   0.35734484   0.85719039  0.033095015  0.032862972  0.091092777   0.15705076 
  723000     -1793339    14998.912    970.40546    77.208503    89.153392    81.460908    1988.1542   0.24697192   0.25164322   0.36050326   0.85911839  0.031660916  0.032928333  0.092045584   0.15663483 
  724000   -1793293.9    14985.693    646.36272    77.208503    89.153392    81.460908     1986.402   0.24683523   0.24970059   0.35682013   0.85335595  0.032566164  0.032456187  0.088917541   0.15393989 
  725000   -1793305.2    15039.869    1083.5509    77.208503    89.153392    81.460908    1993.5833   0.24778908   0.25162799   0.36062709   0.86004416  0.032669748  0.032775805  0.089642305   0.15508786 
  726000   -1793237.5     15036.89    1792.7678    77.208503    89.153392    81.460908    1993.1883   0.24797551   0.25222829   0.35533686   0.85554066  0.032072975  0.033736884  0.089706291   0.15551615 
  727000   -1793245.2    14983.694    1727.9816    77.208503    89.153392    81.460908     1986.137   0.24745576   0.25092337   0.35962843   0.85800756   0.03224212  0.033165483  0.091307819   0.15671542 
  728000   -1793249.5    15107.981    1944.2527    77.208503    89.153392    81.460908    2002.6117   0.24867918   0.25026224   0.35988923   0.85883065  0.031706614  0.032017803  0.090769097   0.15449351 
  729000   -1793350.5     14994.08    725.05007    77.208503    89.153392    81.460908    1987.5137   0.24797095   0.25375727   0.36145493   0.86318316  0.032712292  0.033746558  0.092223353    0.1586822 
  730000   -1793233.7    15079.598    1380.9635    77.208503    89.153392    81.460908    1998.8494   0.24937897   0.25248135   0.35909182   0.86095214  0.032442794  0.032412972  0.089488559   0.15434432 
  731000     -1793247    15105.827    1786.1494    77.208503    89.153392    81.460908    2002.3261   0.25097397     0.254261   0.36361453    0.8688495  0.031532009   0.03329382  0.090863871    0.1556897 
  732000   -1793352.8    15101.157     699.8954    77.208503    89.153392    81.460908    2001.7072   0.24953839   0.25385246   0.36110944   0.86450028  0.032281929  0.033218925  0.090278531   0.15577938 
  733000   -1793224.2    15150.122    1951.8655    77.208503    89.153392    81.460908    2008.1976   0.25001103   0.25211292   0.36257247   0.86469642  0.032673798  0.032883101  0.091043023   0.15659992 
  734000   -1793224.7     15117.52    1696.8597    77.208503    89.153392    81.460908    2003.8761   0.25023078   0.25716328   0.36538908   0.87278314  0.031115091  0.033821665  0.092216755   0.15715351 
  735000   -1793311.3    15077.264    1506.9738    77.208503    89.153392    81.460908      1998.54   0.25044037   0.25434698   0.36096875    0.8657561   0.03231441  0.032051901  0.089233064   0.15359937 
  736000   -1793211.2     15106.78    2295.2911    77.208503    89.153392    81.460908    2002.4524   0.25002454   0.25577961   0.36095073   0.86675487  0.032351074   0.03333569  0.090833639    0.1565204 
  737000   -1793300.4    15076.954    1176.8753    77.208503    89.153392    81.460908     1998.499    0.2501726   0.25563112   0.36121609   0.86701981  0.032729575  0.033222735   0.09460748   0.16055979 
  738000   -1793171.1    15116.193    2082.5034    77.208503    89.153392    81.460908    2003.7002   0.25304816   0.25587461   0.36212679   0.87104955  0.032175041  0.033328618  0.092729747   0.15823341 
  739000   -1793261.3    15054.979    1494.8043    77.208503    89.153392    81.460908     1995.586   0.25253853   0.25460956   0.36202467   0.86917276  0.032903578  0.032792049  0.092174498   0.15787012 
  740000   -1793241.9    15028.431    831.94456    77.208503    89.153392    81.460908    1992.0671   0.25058514   0.25741864   0.36227474   0.87027852  0.031833443  0.032861452  0.092284219   0.15697911 
  741000   -1793188.2    15114.538    1320.5882    77.208503    89.153392    81.460908    2003.4808   0.25167518   0.25702038   0.36285396   0.87154952  0.032751914  0.033140867  0.093011845   0.15890463 
  742000   -1793279.8    15072.007    1621.3368    77.208503    89.153392    81.460908    1997.8432    0.2531289   0.25706138   0.36339606   0.87358634  0.033262029  0.033117018  0.092005001   0.15838405 
  743000   -1793182.9    15087.348    1780.5409    77.208503    89.153392    81.460908    1999.8767     0.251606   0.25619705   0.36162145    0.8694245  0.031828071  0.032681739  0.089480871   0.15399068 
  744000   -1793194.1    15112.095    1508.5761    77.208503    89.153392    81.460908     2003.157    0.2507688    0.2572304   0.36420553   0.87220474  0.032572848  0.033014234   0.08953625   0.15512333 
  745000     -1793297     15066.12    1487.1583    77.208503    89.153392    81.460908    1997.0629   0.25198082   0.25746642   0.36760543   0.87705267  0.032089091  0.032970512  0.089335996    0.1543956 
  746000   -1793297.5    15065.533    1424.1398    77.208503    89.153392    81.460908     1996.985   0.25085621   0.25878145   0.36724817   0.87688583  0.032532351  0.032937418  0.091741672   0.15721144 
  747000   -1793192.5    15179.703    2298.1003    77.208503    89.153392    81.460908    2012.1186   0.25365204   0.25917391   0.36668788   0.87951383  0.033432016  0.033280462  0.089243698   0.15595618 
  748000   -1793308.7    15149.133     1421.123    77.208503    89.153392    81.460908    2008.0665   0.25292783   0.25802621   0.36621347   0.87716751  0.032583746  0.033260075  0.087239434   0.15308326 
  749000   -1793288.6    15105.176    1153.3807    77.208503    89.153392    81.460908    2002.2398   0.25276487   0.25647345   0.36778456   0.87702289  0.032835429  0.032562639  0.090370222   0.15576829 
  750000   -1793284.1    15064.626    1728.2555    77.208503    89.153392    81.460908    1996.8648   0.25468095   0.25898627   0.37179124   0.88545846  0.032586851  0.033187214  0.093211223   0.15898529 
  751000   -1793257.6    15107.666    1650.0645    77.208503    89.153392    81.460908    2002.5699   0.25259173   0.25799829   0.36359433   0.87418435  0.032353758  0.032994249  0.089215671   0.15456368 
  752000   -1793231.7    15085.722    1765.3746    77.208503    89.153392    81.460908    1999.6612   0.25442545   0.25754434   0.36872934   0.88069914  0.033151494  0.033553822  0.095943874   0.16264919 
  753000   -1793173.4    15098.365    1544.3581    77.208503    89.153392    81.460908    2001.3371   0.25419964   0.25643199   0.36855598   0.87918761  0.032907875  0.033192717  0.093960973   0.16006156 
  754000   -1793343.4    15105.586    985.63786    77.208503    89.153392    81.460908    2002.2942   0.25517616   0.25721187   0.36734285   0.87973089   0.03212443  0.033449864  0.093926837   0.15950113 
  755000   -1793208.6    15059.134    1637.7464    77.208503    89.153392    81.460908    1996.1369   0.25491045    0.2581271   0.36636854    0.8794061  0.032832713  0.033404722  0.093937204   0.16017464 
  756000   -1793284.4      15130.6    1452.9712    77.208503    89.153392    81.460908      2005.61   0.25705875   0.25755658   0.36784418    0.8824595  0.032743989  0.033670502  0.092071641   0.15848613 
  757000   -1793164.1    15072.014    2100.7483    77.208503    89.153392    81.460908    1997.8441   0.25702079   0.25961102    0.3693114   0.88594321  0.033644743  0.033175359  0.094537393    0.1613575 
  758000   -1793202.2    15099.881    2156.0398    77.208503    89.153392    81.460908     2001.538   0.25513474   0.25849398   0.36745774   0.88108646  0.032465558  0.033238011  0.091533839   0.15723741 
  759000   -1793266.2    15082.095    1732.6166    77.208503    89.153392    81.460908    1999.1804   0.25704979   0.25646073   0.36978156   0.88329208  0.032586171  0.032640494  0.093781143   0.15900781 
  760000     -1793279    15128.756    859.46521    77.208503    89.153392    81.460908    2005.3654   0.25580027   0.25835925   0.36694446   0.88110398  0.032084733  0.032377981  0.091209098   0.15567181 
  761000     -1793155    15066.819    2206.7383    77.208503    89.153392    81.460908    1997.1555   0.25688426   0.25764038   0.36997005   0.88449468  0.033543144  0.032588152  0.091883103    0.1580144 
  762000   -1793352.9    15042.738    1090.9902    77.208503    89.153392    81.460908    1993.9636   0.25624206   0.25790644   0.36979756   0.88394607  0.032529097  0.032740322  0.092864366   0.15813379 
  763000   -1793294.2    15048.406    1031.8686    77.208503    89.153392    81.460908    1994.7148   0.25795549   0.25813376   0.37409316   0.89018241   0.03236891   0.03287406  0.093275765   0.15851873 
  764000   -1793377.7     14996.61    614.33856    77.208503    89.153392    81.460908    1987.8491   0.25770472   0.25760543    0.3688905   0.88420064  0.032505446  0.032528885  0.093249661   0.15828399 
  765000   -1793199.5     15057.75     1405.158    77.208503    89.153392    81.460908    1995.9534   0.25662362   0.25882685   0.37325279   0.88870326  0.031993331  0.032310898  0.093314837   0.15761907 
  766000   -1793188.7    15127.692    1978.0253    77.208503    89.153392    81.460908    2005.2245   0.25646118   0.26033814   0.37280946   0.88960878  0.032634987  0.033252842  0.092872887   0.15876072 
  767000   -1793304.7    15009.383    834.88739    77.208503    89.153392    81.460908    1989.5422   0.25808921   0.25843103   0.37638748   0.89290772  0.033357064  0.032277156  0.092175794   0.15781001 
  768000   -1793207.3    15057.936    2044.1328    77.208503    89.153392    81.460908    1995.9781   0.25661701   0.26019567   0.37573947   0.89255215  0.033278905  0.032660928   0.09122622   0.15716605 
  769000   -1793288.7    15119.314    1353.0139    77.208503    89.153392    81.460908     2004.114   0.25779488   0.26097324    0.3761164   0.89488452  0.033483247  0.033028616  0.090265005   0.15677687 
  770000     -1793288    15126.966    860.05815    77.208503    89.153392    81.460908    2005.1282   0.25739493   0.26136319   0.37642472   0.89518284  0.032708575  0.033372063  0.090766995   0.15684763 
  771000   -1793236.6     15117.92    1234.4244    77.208503    89.153392    81.460908    2003.9291   0.25989946   0.26149459   0.37488925   0.89628329  0.034121822  0.032991484  0.088323535   0.15543684 
  772000     -1793188     15149.29    2380.0706    77.208503    89.153392    81.460908    2008.0873   0.25947928   0.26276216   0.37391743   0.89615887  0.033357791  0.032999665   0.08950573   0.15586318 
  773000   -1793299.3    15160.753    1382.4177    77.208503    89.153392    81.460908    2009.6067   0.26055951   0.26198832   0.37369326   0.89624109  0.032673739  0.033113366  0.090775675   0.15656278 
  774000   -1793276.1    15010.023    1100.8135    77.208503    89.153392    81.460908     1989.627   0.26021329   0.26447115    0.3767529   0.90143734  0.033547426  0.033083158  0.088619158   0.15524974 
  775000   -1793317.6    15019.685    726.61588    77.208503    89.153392    81.460908    1990.9078   0.26024812   0.26254429   0.37713946   0.89993187  0.034248425  0.032557687  0.087834674   0.15464079 
  776000     -1793192    15095.973    2176.7272    77.208503    89.153392    81.460908      2001.02   0.26253384   0.26298404   0.37873724   0.90425512  0.033209473    0.0330266  0.092074711   0.15831078 
  777000   -1793247.1    15050.539    1877.4745    77.208503    89.153392    81.460908    1994.9975   0.26277617   0.26258266     0.378438   0.90379683  0.034334234  0.032164337  0.092752754   0.15925132 
  778000     -1793240    15153.277    1472.4469    77.208503    89.153392    81.460908    2008.6158   0.26109084   0.26529307   0.37550563   0.90188953  0.032753648  0.033616551  0.093172033   0.15954223 
  779000   -1793202.5    15108.263    2184.1914    77.208503    89.153392    81.460908    2002.6491   0.26236816   0.26468559   0.37824939   0.90530314  0.032671261  0.033680103  0.090060072   0.15641144 
  780000   -1793266.4    15111.241    1593.1887    77.208503    89.153392    81.460908    2003.0438   0.26328137   0.26334615   0.37827085   0.90489837  0.033950897  0.033010732  0.090430781   0.15739241 
  781000   -1793354.5    15024.702    705.12299    77.208503    89.153392    81.460908    1991.5728   0.26444859   0.26504725   0.38098206   0.91047789  0.033611402  0.032711394  0.092843645   0.15916644 
  782000   -1793312.6    15085.447    953.11367    77.208503    89.153392    81.460908    1999.6247   0.26617131   0.26330552   0.37971224   0.90918908  0.033598211  0.033164891  0.094171279   0.16093438 
  783000   -1793233.7    15071.132    1568.3871    77.208503    89.153392    81.460908    1997.7272   0.26703803   0.26540585    0.3803924   0.91283627  0.033421612  0.033000345  0.095551497   0.16197345 
  784000     -1793222    15119.663    1691.4477    77.208503    89.153392    81.460908    2004.1602   0.26684119   0.26491139   0.38145849   0.91321107  0.033486377  0.032579387  0.092400067   0.15846583 
  785000   -1793296.7    15185.641     1201.536    77.208503    89.153392    81.460908    2012.9058    0.2682335   0.26729739   0.38244786   0.91797875  0.034464688  0.032499953  0.095000469   0.16196511 
  786000   -1793315.7    15094.506    1484.7063    77.208503    89.153392    81.460908    2000.8255   0.26680788   0.26648719   0.38294904   0.91624411  0.033132604  0.033290759  0.093820341    0.1602437 
  787000   -1793228.6     15172.78    1743.3451    77.208503    89.153392    81.460908     2011.201   0.26784806   0.26699938    0.3864484   0.92129585     0.033803  0.033095283  0.094640565   0.16153885 
  788000   -1793306.2    15137.506    2009.5521    77.208503    89.153392    81.460908    2006.5252   0.26939182   0.26692271   0.38268422   0.91899875    0.0332637  0.032656391  0.090789722   0.15670981 
  789000   -1793259.7    15036.065      1181.15    77.208503    89.153392    81.460908     1993.079   0.26754569   0.26877127    0.3826745   0.91899146  0.033920352  0.033168511  0.091792827   0.15888169 
  790000   -1793344.8    15161.134    1119.0881    77.208503    89.153392    81.460908    2009.6573   0.26745418   0.26872829   0.38427786   0.92046033   0.03455739  0.032833638  0.091353032   0.15874406 
  791000     -1793257    14990.227    870.25517    77.208503    89.153392    81.460908     1987.003   0.27016695   0.26928311   0.38441709   0.92386715  0.034001153  0.032420473  0.092660388   0.15908202 
  792000   -1793335.9    14972.866    428.28111    77.208503    89.153392    81.460908    1984.7018   0.26980748   0.26894773   0.38638123   0.92513644  0.034945538  0.033421485  0.093868355   0.16223538 
  793000   -1793296.7    15120.866    1207.6544    77.208503    89.153392    81.460908    2004.3196   0.26868576   0.26878118   0.38864854   0.92611549  0.032066072  0.032302145  0.091091057   0.15545927 
  794000   -1793173.6    15093.983    1631.2089    77.208503    89.153392    81.460908    2000.7562    0.2697897   0.26919446   0.38995115   0.92893531  0.032669328  0.032514101  0.094223877   0.15940731 
  795000   -1793220.4    15111.248    1801.8496    77.208503    89.153392    81.460908    2003.0447   0.26987208   0.27146788   0.38809803   0.92943799  0.034532225  0.033084876  0.092631605   0.16024871 
  796000   -1793242.3    15057.363    1518.0833    77.208503    89.153392    81.460908     1995.902   0.27022427    0.2718772   0.38932041   0.93142188  0.034014176  0.033418001  0.094216799   0.16164898 
  797000     -1793271    15138.931    1753.5783    77.208503    89.153392    81.460908    2006.7142   0.26843491   0.27125785    0.3879694   0.92766215  0.032825129  0.032775762  0.094202137   0.15980303 
  798000   -1793183.8    15102.235    1785.1798    77.208503    89.153392    81.460908      2001.85   0.27011053   0.27153702   0.39033072   0.93197828  0.033819951  0.033939999  0.096709197   0.16446915 
  799000   -1793206.9    15045.122    1308.7457    77.208503    89.153392    81.460908    1994.2795    0.2715161   0.27207884   0.38757076    0.9311657  0.033326769  0.033821547  0.092179372   0.15932769 
  800000   -1793248.1    15088.105    1789.1712    77.208503    89.153392    81.460908    1999.9771   0.27309432    0.2723131   0.39115812   0.93656553   0.03446947   0.03361632  0.093322616   0.16140841 
  801000   -1793160.7    15060.845    2391.1366    77.208503    89.153392    81.460908    1996.3636   0.27198004   0.27218882   0.38848422   0.93265308  0.034065753  0.033468413   0.09258499   0.16011916 
  802000   -1793264.9    15037.772    1492.5773    77.208503    89.153392    81.460908    1993.3052   0.27375364   0.27165471   0.39002188   0.93543023  0.033414288  0.032718712  0.093925026   0.16005803 
  803000   -1793239.8    15058.836    1616.6477    77.208503    89.153392    81.460908    1996.0973   0.27261263   0.27336733    0.3911974   0.93717736  0.034294366  0.032767117  0.091328737   0.15839022 
  804000   -1793359.3    15100.701    1413.3844    77.208503    89.153392    81.460908    2001.6467   0.27376221    0.2726856   0.39121075   0.93765857   0.03437847  0.031997241  0.092430231   0.15880594 
  805000   -1793267.2    15104.098    1482.3169    77.208503    89.153392    81.460908     2002.097   0.27169261   0.27310415   0.39132538   0.93612214  0.033913188  0.033110829  0.093851266   0.16087528 
  806000   -1793224.4    15122.713    1755.2722    77.208503    89.153392    81.460908    2004.5645   0.27035345   0.27348213   0.38885816   0.93269374  0.033014789  0.032029673  0.092841334    0.1578858 
  807000   -1793166.8    15095.262    2529.1333    77.208503    89.153392    81.460908    2000.9258   0.27301828   0.27463748   0.39083601   0.93849176  0.034360275  0.033354955  0.093956044   0.16167127 
  808000     -1793296    15118.238    947.12451    77.208503    89.153392    81.460908    2003.9712   0.27313076   0.27706552   0.39268233    0.9428786  0.034364453  0.034533225  0.092898156   0.16179583 
  809000   -1793230.1    15051.236    1863.3115    77.208503    89.153392    81.460908    1995.0899   0.27396807     0.275707   0.39578871   0.94546378  0.033582029   0.03364278  0.094567395    0.1617922 
  810000   -1793255.7    15093.758    2383.7134    77.208503    89.153392    81.460908    2000.7263    0.2734104   0.27479919   0.39412174   0.94233132  0.033086039  0.033270029  0.093639099   0.15999517 
  811000     -1793251     15151.38    2015.9522    77.208503    89.153392    81.460908    2008.3644   0.27220119   0.27450397   0.39641224    0.9431174  0.033328251  0.034040574  0.093173725   0.16054255 
  812000   -1793267.4     15065.21    1285.5431    77.208503    89.153392    81.460908    1996.9423   0.27402586   0.27459897   0.39474176   0.94336659   0.03522222   0.03292578  0.093040861   0.16118886 
  813000   -1793283.7    15128.159    1480.2918    77.208503    89.153392    81.460908    2005.2863   0.27284922   0.27591977   0.39462918   0.94339818  0.034042656  0.032616094  0.093102749    0.1597615 
  814000   -1793262.9    15102.675    1548.4594    77.208503    89.153392    81.460908    2001.9084   0.27214251    0.2776065   0.39957245   0.94932146  0.033338894  0.034404006  0.095447005    0.1631899 
  815000   -1793155.8    15026.398    1812.0404    77.208503    89.153392    81.460908    1991.7975    0.2745018   0.27621296   0.39588823   0.94660298  0.034404458   0.03364427  0.091481353   0.15953008 
  816000   -1793260.7    15021.736    1576.1558    77.208503    89.153392    81.460908    1991.1796   0.27432799   0.27795557   0.39877095   0.95105451  0.033690798  0.032866295  0.095855598   0.16241269 
  817000   -1793232.8    15051.727    1801.5485    77.208503    89.153392    81.460908     1995.155   0.27394017   0.27590543   0.39723876   0.94708436  0.033985134  0.033031902   0.09345934   0.16047638 
  818000   -1793303.9     15033.94    1153.4834    77.208503    89.153392    81.460908    1992.7973   0.27498812   0.27761974   0.40002917   0.95263703  0.034479136  0.033073771  0.095507109   0.16306002 
  819000   -1793178.5    15066.471    1926.0139    77.208503    89.153392    81.460908    1997.1094   0.27524837   0.27666835    0.3973038   0.94922052  0.034331958   0.03324314  0.092651811   0.16022691 
  820000   -1793203.9    15071.586    2292.2555    77.208503    89.153392    81.460908    1997.7873   0.27484948   0.27822682   0.40136794   0.95444425  0.034457542  0.034226586  0.097982592   0.16666672 
  821000   -1793269.3    14947.293    801.65903    77.208503    89.153392    81.460908    1981.3119   0.27406587   0.27563648   0.39568046   0.94538281   0.03417966   0.03311802  0.094552947   0.16185063 
  822000   -1793241.3    15102.505    1429.2163    77.208503    89.153392    81.460908    2001.8858   0.27578987   0.27674551   0.39907631    0.9516117  0.034570862  0.033091064   0.09375812   0.16142005 
  823000   -1793236.2    15022.695    1365.7479    77.208503    89.153392    81.460908    1991.3067   0.27457263   0.27711064   0.39982977   0.95151304  0.034060899  0.032846378  0.093662954   0.16057023 
  824000   -1793314.2    15096.873    1519.8856    77.208503    89.153392    81.460908    2001.1392   0.27464362   0.27784248   0.39992198   0.95240809  0.033108566  0.033495958  0.093521087   0.16012561 
  825000   -1793264.9    15085.182    1484.9419    77.208503    89.153392    81.460908    1999.5895   0.27607169   0.27965134   0.40341143   0.95913446  0.033620706  0.033801954  0.095030191   0.16245285 
  826000   -1793267.6    15006.991    1284.8015    77.208503    89.153392    81.460908    1989.2251   0.27710012    0.2785976   0.40090287   0.95660059  0.033873747  0.033213328  0.091303155   0.15839023 
  827000   -1793288.5    15140.299    1748.9147    77.208503    89.153392    81.460908    2006.8955   0.27738057   0.28045475   0.40326119   0.96109651  0.033748358  0.033374268  0.093915183   0.16103781 
  828000   -1793288.7    15112.671    1333.1991    77.208503    89.153392    81.460908    2003.2334   0.27580316   0.28088051   0.40188461   0.95856827  0.033372256  0.033082883   0.09202196    0.1584771 
  829000   -1793247.9    15116.788    1259.4074    77.208503    89.153392    81.460908     2003.779   0.27796896   0.28036865   0.40147336   0.95981097  0.033880618  0.032775809  0.094039159   0.16069559 
  830000   -1793201.2    15106.921    1895.1103    77.208503    89.153392    81.460908    2002.4711    0.2767012   0.28131005   0.40560127   0.96361252  0.033637877  0.034248836  0.094761218   0.16264793 
  831000   -1793240.9    15091.318      1805.94    77.208503    89.153392    81.460908     2000.403   0.27841769   0.28109341   0.40265228   0.96216338  0.033873871  0.032294049  0.093624135   0.15979205 
  832000   -1793344.4    15173.198    1069.5931    77.208503    89.153392    81.460908    2011.2564   0.27857099   0.27905492   0.40483112   0.96245704  0.032868574  0.033388107  0.091573559   0.15783024 
  833000   -1793347.5     15110.48    899.33937    77.208503    89.153392    81.460908    2002.9429   0.28088659   0.28173721   0.40472647   0.96735026  0.034365991  0.034000784  0.091319641   0.15968642 
  834000   -1793281.4    15174.795     1220.027    77.208503    89.153392    81.460908    2011.4681   0.28032344   0.28118494   0.40684198   0.96835036  0.033532978  0.032976501  0.093002858   0.15951234 
  835000   -1793265.2    15127.123    1397.8767    77.208503    89.153392    81.460908     2005.149   0.28169747   0.28094546    0.4054534   0.96809634  0.033734735  0.032679728  0.092552447   0.15896691 
  836000   -1793231.8    15080.795    2085.9322    77.208503    89.153392    81.460908    1999.0081   0.28039921   0.28164406   0.40788255   0.96992582  0.033538949   0.03359074  0.094357102   0.16148679 
  837000   -1793161.9    15021.032    1608.7018    77.208503    89.153392    81.460908    1991.0864   0.28067366   0.28078965   0.40294169     0.964405  0.034311719  0.033428028  0.092886202   0.16062595 
  838000   -1793334.6    15050.562    613.71531    77.208503    89.153392    81.460908    1995.0005   0.28222273   0.28141684    0.4061368   0.96977638  0.034916524  0.032853412  0.095809516   0.16357945 
  839000   -1793301.4    15124.937    849.88701    77.208503    89.153392    81.460908    2004.8592   0.28171591   0.28209171   0.40547084   0.96927847  0.033064306  0.033237601  0.093793654   0.16009556 
  840000     -1793256    15145.977     1371.001    77.208503    89.153392    81.460908    2007.6482   0.28046923   0.28192839   0.40633633   0.96873395   0.03355966  0.032679868  0.095737648   0.16197718 
  841000     -1793292    15136.687    1824.4122    77.208503    89.153392    81.460908    2006.4167   0.27928236    0.2820159   0.40851332   0.96981158  0.033924735  0.032589475  0.096293829   0.16280804 
  842000   -1793350.2     15182.31    1834.9031    77.208503    89.153392    81.460908    2012.4643   0.28009387    0.2833368   0.40645537   0.96988604  0.033886786  0.032774234  0.095890134   0.16255115 
  843000   -1793267.5     15009.01    1246.3355    77.208503    89.153392    81.460908    1989.4927    0.2811471   0.28389767   0.40750563    0.9725504  0.034152093  0.033176136  0.095678489   0.16300672 
  844000   -1793268.4    15026.464    1193.6558    77.208503    89.153392    81.460908    1991.8063   0.27826165   0.28407312    0.4075197   0.96985448  0.032903686  0.033913129   0.09411252   0.16092934 
  845000   -1793306.7    15057.409    1095.3025    77.208503    89.153392    81.460908    1995.9082   0.28157491   0.28225685   0.40831901   0.97215077  0.034246784  0.033474008  0.093561882   0.16128267 
  846000   -1793244.1    15121.924    1367.7735    77.208503    89.153392    81.460908    2004.4599   0.28155633   0.28443197    0.4079839   0.97397219  0.033360372   0.03354708  0.094491734   0.16139919 
  847000   -1793198.8    15132.272    2589.3982    77.208503    89.153392    81.460908    2005.8315   0.28280338    0.2844063   0.40761813   0.97482781  0.034122038  0.033833124  0.097025343   0.16498051 
  848000   -1793311.3    15107.945    1601.9914    77.208503    89.153392    81.460908    2002.6069   0.28116923   0.28547084   0.41032857   0.97696864  0.033732933   0.03296208  0.093343953   0.16003897 
  849000   -1793213.6    15094.167    2245.4756    77.208503    89.153392    81.460908    2000.7806   0.27991998   0.28571817   0.40743775    0.9730759  0.033403447  0.033924301  0.093946383   0.16127413 
  850000   -1793327.1    15096.947    1709.5163    77.208503    89.153392    81.460908    2001.1491   0.28137014   0.28604405    0.4066787   0.97409289  0.032255708  0.033140337  0.093862833   0.15925888 
  851000   -1793308.7    15092.618    1008.1805    77.208503    89.153392    81.460908    2000.5752   0.28169368   0.28589374   0.40912681   0.97671424  0.033841595  0.032751722  0.093591416   0.16018473 
  852000   -1793220.8    15065.425    1564.0328    77.208503    89.153392    81.460908    1996.9707   0.28045088    0.2869193   0.40843453   0.97580471  0.033561576  0.032958174  0.093951008   0.16047076 
  853000   -1793340.6    15204.617    1787.0122    77.208503    89.153392    81.460908    2015.4211   0.28492763    0.2867947   0.40570387   0.97742621  0.033947697  0.033586559  0.095419382   0.16295364 
  854000   -1793350.6    15122.128    1096.4427    77.208503    89.153392    81.460908    2004.4868   0.28319464   0.28620007    0.4092045   0.97859921  0.034126681   0.03314055  0.095923226   0.16319046 
  855000   -1793277.3    15121.854    534.75005    77.208503    89.153392    81.460908    2004.4506   0.28212953   0.28630264   0.40900044   0.97743261  0.033660296  0.033248852  0.099171181   0.16608033 
  856000   -1793257.7    15154.505     1543.593    77.208503    89.153392    81.460908    2008.7786     0.284803   0.28678449   0.40966991   0.98125741  0.034296174  0.033887105   0.10073744   0.16892072 
  857000     -1793239     15102.53    1365.5999    77.208503    89.153392    81.460908    2001.8891   0.28363272   0.28595257    0.4096926   0.97927789  0.032912061  0.033267941  0.098929576   0.16510958 
  858000     -1793240    15044.025     1821.403    77.208503    89.153392    81.460908    1994.1341    0.2855829   0.28658169   0.41009216   0.98225675  0.033402864  0.033327816  0.097946764   0.16467744 
  859000   -1793227.6    15089.779    1825.7476    77.208503    89.153392    81.460908    2000.1989   0.28533688   0.28727521    0.4127271    0.9853392  0.033915132  0.033714885  0.099796995   0.16742701 
  860000     -1793202    15149.071    2023.4588    77.208503    89.153392    81.460908    2008.0582   0.28565755   0.28869438   0.41467733   0.98902925  0.033312108  0.032873225  0.095566035   0.16175137 
  861000   -1793254.1    15047.947    1372.1613    77.208503    89.153392    81.460908     1994.654   0.28802706   0.28882024   0.41639351    0.9932408  0.034295371  0.033528974  0.097557017   0.16538136 
  862000   -1793191.5    15066.408    2574.6422    77.208503    89.153392    81.460908     1997.101   0.28634187   0.28782314   0.41468019    0.9888452  0.034008528  0.032718952  0.096289603   0.16301708 
  863000   -1793282.6    15143.455    1720.4219    77.208503    89.153392    81.460908    2007.3139   0.28535792   0.28606379   0.41455356   0.98597527  0.033074641   0.03415971  0.096587874   0.16382223 
  864000     -1793233    15107.416    1755.3213    77.208503    89.153392    81.460908    2002.5368   0.28619959   0.28820963   0.41677296   0.99118218   0.03321136  0.033520376  0.098337513   0.16506925 
  865000   -1793203.5     15076.76    1743.5202    77.208503    89.153392    81.460908    1998.4732   0.28760923   0.28618226   0.41555404   0.98934552  0.033556375  0.032832664  0.099425185   0.16581422 
  866000   -1793187.2    15088.593    2129.4147    77.208503    89.153392    81.460908    2000.0418   0.28591825   0.28991791   0.41729513   0.99313129  0.033535582  0.034760676   0.10128455   0.16958081 
  867000   -1793314.9    15155.608    2100.4932    77.208503    89.153392    81.460908    2008.9248   0.28664652   0.29024812   0.41830605   0.99520069  0.033122273  0.033650134   0.10203329    0.1688057 
  868000   -1793255.3    15002.877    1703.6131    77.208503    89.153392    81.460908    1988.6798   0.28761078   0.29026236    0.4174074   0.99528054   0.03335209  0.034378097   0.09883473   0.16656492 
  869000   -1793332.9    15129.861    833.63024    77.208503    89.153392    81.460908    2005.5119   0.28797565    0.2899112   0.41908125    0.9969681  0.033057758  0.033626632   0.10001668   0.16670107 
  870000   -1793254.8     15077.94    1151.7418    77.208503    89.153392    81.460908    1998.6296   0.28761201   0.29034891   0.41578205   0.99374296  0.033604281  0.033696373  0.098669006   0.16596966 
  871000   -1793172.1    15084.579    1850.8011    77.208503    89.153392    81.460908    1999.5096   0.28857344   0.28877352   0.41814892   0.99549588   0.03392015  0.032981082   0.10062145   0.16752269 
  872000   -1793286.8    15137.558    1076.1691    77.208503    89.153392    81.460908    2006.5322   0.28814096   0.28901559   0.41660306    0.9937596  0.033227588  0.032215525  0.097059896   0.16250301 
  873000   -1793314.1    15021.752    977.35262    77.208503    89.153392    81.460908    1991.1817   0.28798815   0.29140599   0.41864294   0.99803708  0.033520075  0.033738985  0.098870945      0.16613 
  874000   -1793255.3    15055.375    2423.4682    77.208503    89.153392    81.460908    1995.6386   0.28849334   0.28867038   0.41869177    0.9958555  0.033547967  0.033009815   0.10004825   0.16660603 
  875000   -1793285.1    15139.921    1565.0817    77.208503    89.153392    81.460908    2006.8454   0.29054513   0.29012726   0.42003702    1.0007094  0.033419072   0.03353351  0.098452695   0.16540528 
  876000   -1793226.8    15105.497    1309.8221    77.208503    89.153392    81.460908    2002.2824   0.29192753    0.2882167   0.42123315    1.0013774  0.034065882  0.032795097  0.098274451   0.16513543 
  877000   -1793337.6    15134.214    955.52521    77.208503    89.153392    81.460908    2006.0889   0.28946106   0.28764609   0.41883056    0.9959377  0.033288244  0.033263438    0.1003016   0.16685328 
  878000   -1793226.3    14986.345    1788.2466    77.208503    89.153392    81.460908    1986.4884   0.29060881   0.28867935    0.4195416   0.99882976  0.034015056   0.03352563   0.10087543   0.16841611 
  879000   -1793208.3    15067.636    1974.1127    77.208503    89.153392    81.460908    1997.2638   0.28996328   0.28861964   0.41904812   0.99763103  0.034422895   0.03298032  0.099294183    0.1666974 
  880000   -1793365.4    15118.615    1077.5925    77.208503    89.153392    81.460908    2004.0212   0.28789109   0.28875626   0.41982643   0.99647379  0.032867432  0.032622888  0.099365266   0.16485559 
  881000   -1793169.7    15079.237    2245.2718    77.208503    89.153392    81.460908    1998.8015   0.28994814   0.28871836   0.41972579   0.99839229  0.033304349  0.033777268  0.097477184    0.1645588 
  882000   -1793234.9    15106.486    1201.0818    77.208503    89.153392    81.460908    2002.4135   0.29119843   0.28877127   0.42077484    1.0007445  0.034330772  0.033389339  0.099799373   0.16751948 
  883000   -1793295.9    15113.696    1207.9297    77.208503    89.153392    81.460908    2003.3693   0.29063383   0.29008037   0.42317405    1.0038883  0.034525495  0.032636857  0.099263899   0.16642625 
  884000   -1793196.2    15229.643    2287.9763    77.208503    89.153392    81.460908    2018.7384   0.29029574   0.29046455   0.42061759    1.0013779  0.033079022  0.033623215     0.099375   0.16607724 
  885000   -1793267.6    15088.055    1234.0783    77.208503    89.153392    81.460908    1999.9704   0.29216963   0.29103061   0.42148113    1.0046814  0.033882187  0.033311773  0.098602694   0.16579665 
  886000   -1793238.8    15158.219     1151.116    77.208503    89.153392    81.460908    2009.2709   0.28980119   0.29034963   0.42085462    1.0010054  0.033689383  0.033410169  0.099995301   0.16709485 
  887000   -1793276.9    15047.074    748.43976    77.208503    89.153392    81.460908    1994.5382   0.29088402   0.29095216   0.41986969    1.0017059  0.033917858  0.033118904  0.098259245   0.16529601 
  888000   -1793317.6    15077.149    1263.6149    77.208503    89.153392    81.460908    1998.5247   0.29090797   0.29178987   0.42412222    1.0068201  0.033192498  0.033255615    0.0995388   0.16598691 
  889000   -1793366.7    15063.198    1536.6201    77.208503    89.153392    81.460908    1996.6756   0.28921367    0.2917744   0.42310845    1.0040965   0.03291076  0.033095151   0.10130488   0.16731079 
  890000   -1793238.1    15094.753    1654.9905    77.208503    89.153392    81.460908    2000.8582   0.29072325    0.2901326   0.42517875    1.0060346  0.034098532  0.032013619   0.10009684   0.16620899 
  891000     -1793272    15049.707    1417.0831    77.208503    89.153392    81.460908    1994.8873   0.29118159   0.29391967   0.42225347    1.0073547   0.03514231  0.034601609   0.10187568    0.1716196 
  892000     -1793228    15033.781    1358.4851    77.208503    89.153392    81.460908    1992.7762   0.29115284   0.29285907   0.42388959    1.0079015  0.033761416  0.033685198   0.10164937   0.16909598 
  893000   -1793306.2    15054.826     1243.026    77.208503    89.153392    81.460908    1995.5659   0.28944208   0.29186779   0.42543685    1.0067467  0.033443419  0.033561635   0.10134317   0.16834822 
  894000   -1793323.8    15131.542    1513.7667    77.208503    89.153392    81.460908    2005.7348   0.29051255   0.29361389   0.42595029    1.0100767  0.033460233  0.033814738    0.1004942   0.16776917 
  895000   -1793275.6    15057.662    1203.5828    77.208503    89.153392    81.460908    1995.9418   0.28887683   0.29220982   0.42673589    1.0078225   0.03275516   0.03309153   0.10162959   0.16747628 
  896000   -1793338.6    15050.835    1012.8158    77.208503    89.153392    81.460908    1995.0368   0.29079748   0.29189042    0.4253831     1.008071  0.034039098  0.033534373   0.10101295   0.16858642 
  897000   -1793303.6     15156.44     1359.991    77.208503    89.153392    81.460908    2009.0351   0.29133822   0.29329077   0.42541695    1.0100459  0.033957185  0.033465689  0.098626826    0.1660497 
  898000   -1793206.7    15052.678    1761.8205    77.208503    89.153392    81.460908    1995.2811   0.29152714   0.29331795   0.42507773    1.0099228  0.033608275  0.033999855    0.1002512   0.16785934 
  899000   -1793240.9    15117.162    2191.8685    77.208503    89.153392    81.460908    2003.8286   0.29152896   0.29452505   0.42644564    1.0124997  0.033906539  0.033514318  0.099418415   0.16683927 
  900000   -1793258.3    15086.999    1286.4426    77.208503    89.153392    81.460908    1999.8304   0.29334752   0.29235069   0.42869775     1.014396   0.03338828  0.033525768   0.10050479   0.16741884 
  901000   -1793244.3    15108.586    1638.9244    77.208503    89.153392    81.460908    2002.6919   0.29294597   0.29289296   0.42864582    1.0144848  0.034003174  0.032938147  0.099784833   0.16672615 
  902000   -1793170.2    15149.916    2094.4826    77.208503    89.153392    81.460908    2008.1702   0.29325269   0.29289688   0.42794843     1.014098  0.033296525  0.033235711   0.10226488   0.16879711 
  903000     -1793228    15019.888    1322.4938    77.208503    89.153392    81.460908    1990.9346   0.29419928   0.29323361   0.42632199    1.0137549  0.034421835  0.033152701     0.100471   0.16804554 
  904000   -1793218.2    15006.201    1276.1024    77.208503    89.153392    81.460908    1989.1204   0.29525644   0.29563589   0.42804266     1.018935  0.034416078  0.033379732   0.10078427   0.16858008 
  905000   -1793253.7    15045.082     1454.917    77.208503    89.153392    81.460908    1994.2742   0.29466542   0.29515098   0.42927626    1.0190927   0.03395188  0.033374678   0.10398869   0.17131525 
  906000   -1793310.6    15025.312    1742.3826    77.208503    89.153392    81.460908    1991.6536    0.2943532   0.29576856   0.43057377    1.0206955    0.0340904  0.033490717   0.10205106   0.16963217 
  907000   -1793177.3    15017.712    1322.7891    77.208503    89.153392    81.460908    1990.6463   0.29468844   0.29572474   0.43025764    1.0206708  0.033681766   0.03312833   0.10140084   0.16821094 
  908000   -1793238.6     15063.07    1693.8923    77.208503    89.153392    81.460908    1996.6586   0.29448234   0.29719292   0.42957674     1.021252  0.034191411  0.033844974   0.10178298   0.16981937 
  909000     -1793262    15080.564    1644.2635    77.208503    89.153392    81.460908    1998.9775   0.29642208   0.29589586   0.43346927    1.0257872  0.034916367  0.033099929   0.10279275   0.17080905 
  910000   -1793220.8     15140.14    1701.2558    77.208503    89.153392    81.460908    2006.8744   0.29465505   0.29499697   0.42910709    1.0187591  0.033776055  0.033149313   0.10069866   0.16762403 
  911000   -1793270.9    15128.416    1575.5891    77.208503    89.153392    81.460908    2005.3204   0.29586864   0.29517615   0.43403071    1.0250755  0.033348801  0.032337621    0.1020447   0.16773112 
  912000   -1793231.8    15048.368    2191.4936    77.208503    89.153392    81.460908    1994.7098    0.2954036   0.29779748   0.43209511    1.0252962  0.033881836  0.032636015   0.10408929   0.17060714 
  913000   -1793320.3    15138.835    1712.8826    77.208503    89.153392    81.460908    2006.7015   0.29612357   0.29689115   0.43204028     1.025055  0.033677534  0.033220032   0.10280645   0.16970402 
  914000   -1793284.3    15094.331    1307.8643    77.208503    89.153392    81.460908    2000.8023    0.2971286   0.29520739    0.4313073    1.0236433  0.034259892  0.033075417   0.10360192   0.17093723 
  915000   -1793293.3    14972.691    1673.9938    77.208503    89.153392    81.460908    1984.6786   0.29555024   0.29805021   0.43008786    1.0236883  0.033749172  0.033519766   0.10047382   0.16774276 
  916000   -1793161.1    15115.139    1796.4142    77.208503    89.153392    81.460908    2003.5605   0.29533481   0.29776748   0.43290237    1.0260047  0.033030392  0.032754167   0.10109275   0.16687731 
  917000     -1793274     15152.98     1670.479    77.208503    89.153392    81.460908    2008.5764    0.2954711   0.29860366   0.43489982    1.0289746   0.03377158  0.034527789   0.10197487   0.17027424 
  918000   -1793347.8    15133.182    913.36292    77.208503    89.153392    81.460908    2005.9522   0.29741285   0.29883855   0.43673753    1.0329889  0.034401978  0.032813864   0.10227458   0.16949042 
  919000   -1793334.8    15174.636    953.33191    77.208503    89.153392    81.460908     2011.447   0.29714269   0.29944134   0.43459878    1.0311828  0.033778661  0.033811498   0.10288618   0.17047634 
  920000   -1793189.6    15074.541    1944.4463    77.208503    89.153392    81.460908    1998.1791   0.29537928   0.29889911   0.43464634    1.0289247  0.033032996  0.033269735    0.1013025   0.16760523 
  921000     -1793367    15035.082    1230.3227    77.208503    89.153392    81.460908    1992.9486   0.29668991   0.29879286   0.43460958    1.0300924  0.033568274  0.032713343   0.10205099    0.1683326 
  922000   -1793213.2    15126.644    1808.3402    77.208503    89.153392    81.460908    2005.0855   0.29723315   0.30064246   0.43723785    1.0351135  0.034183484   0.03341544   0.10387113   0.17147005 
  923000   -1793196.4    15104.011    2562.4776    77.208503    89.153392    81.460908    2002.0854   0.29784335   0.30122313   0.43703444    1.0361009  0.034067785  0.033125789   0.10070169   0.16789526 
  924000   -1793355.7    15074.445    996.10543    77.208503    89.153392    81.460908    1998.1664   0.29907861   0.30133023   0.43458914     1.034998  0.034434746  0.034051429  0.099180137   0.16766631 
  925000   -1793195.2    15097.069    1518.4098    77.208503    89.153392    81.460908    2001.1653   0.29955598   0.29773146   0.43326862    1.0305561  0.033526466  0.032289618  0.098197661   0.16401374 
  926000   -1793238.3    15053.407    1300.2995    77.208503    89.153392    81.460908    1995.3777   0.29832572   0.29923024   0.43621347    1.0337694  0.033932148  0.033349287   0.09798256   0.16526399 
  927000   -1793198.9     15098.14    2538.8554    77.208503    89.153392    81.460908    2001.3073   0.29870959   0.29986991   0.43853303    1.0371125  0.033782105  0.033077087   0.10114357   0.16800276 
  928000   -1793259.1    15167.563     2160.318    77.208503    89.153392    81.460908    2010.5095   0.29867355   0.29937303   0.43730677    1.0353534  0.034000284  0.032571108   0.10001517   0.16658656 
  929000   -1793198.3    15041.664    2084.3202    77.208503    89.153392    81.460908    1993.8212   0.29942415   0.30062928   0.44130367    1.0413571   0.03395846   0.03267741   0.10010015   0.16673602 
  930000   -1793330.1    14982.111    1020.0267    77.208503    89.153392    81.460908    1985.9272   0.30031852   0.30102236   0.44105522    1.0423961  0.033705272  0.032225027  0.097938411   0.16386871 
  931000   -1793253.3    15119.766    1559.2575    77.208503    89.153392    81.460908    2004.1737   0.29944482   0.30241315   0.44162515    1.0434831  0.034297981  0.033474528   0.09873728   0.16650979 
  932000   -1793312.1    15090.099    2011.0584    77.208503    89.153392    81.460908    2000.2413   0.30000336   0.30136902   0.43918184    1.0405542  0.033887283  0.033014744  0.098495519   0.16539755 
  933000   -1793265.8    15101.498    1281.3808    77.208503    89.153392    81.460908    2001.7523   0.30025405   0.30277205   0.43873035    1.0417564  0.034546035  0.033886286   0.10045776   0.16889008 
  934000   -1793216.2     15044.93    1971.5154    77.208503    89.153392    81.460908     1994.254   0.30065161   0.30327404   0.43938786    1.0433135  0.034145158  0.033637151   0.10095359    0.1687359 
  935000   -1793240.9     15124.71    1907.4012    77.208503    89.153392    81.460908    2004.8292   0.30178004   0.30186969   0.44052656    1.0441763  0.033210158  0.033341861  0.099918533   0.16647055 
  936000   -1793196.3    15163.677    2137.0664    77.208503    89.153392    81.460908    2009.9943   0.30158927   0.30509439    0.4438939    1.0505776   0.03501782  0.033648359  0.098997292   0.16766347 
  937000   -1793243.2    15050.438    1361.5288    77.208503    89.153392    81.460908    1994.9842   0.30324775   0.30490089   0.43841782    1.0465665  0.034734501  0.033545087  0.097759898   0.16603949 
  938000   -1793290.2     15139.73    1780.2214    77.208503    89.153392    81.460908    2006.8201   0.30332069   0.30480827   0.44383192    1.0519609  0.033342527  0.032621056   0.10378556   0.16974915 
  939000   -1793204.5    15057.038    1593.3202    77.208503    89.153392    81.460908     1995.859   0.30272542   0.30590845    0.4403244    1.0489583  0.032828679  0.033331678  0.099716745    0.1658771 
  940000   -1793336.8    15191.658    996.39466    77.208503    89.153392    81.460908    2013.7033   0.30482207    0.3045593   0.44308941    1.0524708  0.033558704   0.03276103  0.099767124   0.16608686 
  941000   -1793190.9    15009.822    1845.7312    77.208503    89.153392    81.460908    1989.6003   0.30358683   0.30323006   0.44472987    1.0515468  0.033344829  0.032872611   0.10532057   0.17153801 
  942000   -1793226.9    15104.008    2109.0828    77.208503    89.153392    81.460908    2002.0851   0.30406484   0.30513389   0.44492792    1.0541267  0.033692669  0.032541135   0.10125557   0.16748938 
  943000   -1793188.9     15101.03    1945.2807    77.208503    89.153392    81.460908    2001.6903   0.30294287   0.30642771   0.44545357    1.0548241  0.033379839  0.033596164   0.10255955   0.16953555 
  944000   -1793336.7    15154.586    1653.1453    77.208503    89.153392    81.460908    2008.7893   0.30377876   0.30557448   0.44723851    1.0565918  0.033705201  0.032841874   0.10042184   0.16696891 
  945000   -1793244.2    15161.782    2069.2997    77.208503    89.153392    81.460908    2009.7431   0.30494838   0.30545436   0.44621837    1.0566211  0.034313235  0.033407426   0.10094575   0.16866641 
  946000     -1793263    15067.984    2036.9181    77.208503    89.153392    81.460908    1997.3099   0.30315756   0.30741699   0.44555247     1.056127  0.033864163  0.033747397  0.097370188   0.16498175 
  947000   -1793206.7    15068.253    1620.6986    77.208503    89.153392    81.460908    1997.3455   0.30412305   0.30826923   0.44659545    1.0589877  0.034120441  0.034650453   0.10138705   0.17015795 
  948000   -1793258.1    15154.069    1014.6085    77.208503    89.153392    81.460908    2008.7208   0.30262714    0.3070522   0.44512469     1.054804  0.033565422  0.033557862  0.099465861   0.16658915 
  949000   -1793135.2    15072.515    2003.3891    77.208503    89.153392    81.460908    1997.9105   0.30387267   0.30651808    0.4517993      1.06219  0.034427257  0.033861348   0.10168404   0.16997264 
  950000   -1793349.9    15016.414    1486.6806    77.208503    89.153392    81.460908    1990.4741   0.30398107    0.3065019   0.44408556    1.0545685  0.033165408  0.033375723   0.10042184   0.16696297 
  951000     -1793168    15182.467    2489.5083    77.208503    89.153392    81.460908     2012.485   0.30543678   0.30874924   0.44484235    1.0590284  0.032884768  0.033216806  0.099086627    0.1651882 
  952000   -1793234.8    15135.328    911.44132    77.208503    89.153392    81.460908    2006.2366   0.30340988   0.30854363   0.44739639    1.0593499  0.033709334  0.033137228  0.099258746   0.16610531 
  953000   -1793229.5    15040.302    1638.9151    77.208503    89.153392    81.460908    1993.6407    0.3049894   0.30756487   0.44751865    1.0600729  0.032873819  0.032996014  0.099699975   0.16556981 
  954000   -1793231.2    15035.635    1553.8269    77.208503    89.153392    81.460908     1993.022   0.30597182   0.30876469   0.44980513    1.0645416  0.035165286   0.03352407  0.099428227   0.16811758 
  955000   -1793333.9    15151.473    750.61171    77.208503    89.153392    81.460908    2008.3767   0.30583394   0.30743499   0.44553689    1.0588058  0.034167078  0.032266386  0.096821849   0.16325531 
  956000   -1793252.7    15138.126    1638.2756    77.208503    89.153392    81.460908    2006.6075   0.30634413   0.30988744   0.45126297    1.0674945  0.032414759  0.033643114   0.10017947   0.16623734 
  957000   -1793299.5    15079.669    1043.2214    77.208503    89.153392    81.460908    1998.8589   0.30611225   0.30816956   0.45174292    1.0660247  0.033345176  0.032279816   0.10066989   0.16629488 
  958000   -1793243.1    15071.468    1577.1672    77.208503    89.153392    81.460908    1997.7718   0.30860419   0.30961716   0.45188531    1.0701067  0.034128227   0.03352388   0.10074509   0.16839719 
  959000   -1793310.7    15078.815    1418.6015    77.208503    89.153392    81.460908    1998.7456   0.30854436   0.30982741   0.44938235    1.0677541  0.033655747  0.032999313  0.098272302   0.16492736 
  960000   -1793262.9    15069.082    1293.3166    77.208503    89.153392    81.460908    1997.4555   0.30732328   0.31066745    0.4570368    1.0750275  0.033527788  0.033075814   0.10122529   0.16782889 
  961000   -1793212.1    15113.987     2563.624    77.208503    89.153392    81.460908    2003.4078   0.30856131   0.31050932   0.45748631    1.0765569   0.03369866  0.033196384   0.10151819   0.16841323 
  962000   -1793268.8    15114.357    1802.8404    77.208503    89.153392    81.460908    2003.4568   0.30838159   0.31059282   0.45789359     1.076868  0.033476203  0.033133288   0.10223926   0.16884875 
  963000   -1793333.5    15123.572    1262.0058    77.208503    89.153392    81.460908    2004.6784   0.30960073   0.31293884   0.45601677    1.0785563  0.034093259  0.033995408   0.10413755   0.17222622 
  964000     -1793314    15079.593     1663.799    77.208503    89.153392    81.460908    1998.8487   0.30975539   0.31393467   0.45522665    1.0789167  0.033360188  0.032777577    0.1002756   0.16641337 
  965000   -1793239.6    15171.484    1765.6055    77.208503    89.153392    81.460908    2011.0291   0.30988734   0.31021517   0.45788584    1.0779883  0.033142429  0.033097546   0.10137297   0.16761295 
  966000   -1793234.8    15090.723    1631.1825    77.208503    89.153392    81.460908    2000.3241   0.31126289   0.31048017   0.45657894     1.078322  0.034770845  0.032708778  0.099168659   0.16664828 
  967000   -1793151.9    15208.455    2300.0907    77.208503    89.153392    81.460908    2015.9298   0.31152455   0.31163321   0.45785604    1.0810138  0.034106286  0.033437028   0.10316254   0.17070585 
  968000   -1793293.9     15053.98    1649.9652    77.208503    89.153392    81.460908    1995.4536   0.31105564   0.31201253   0.45749563    1.0805638  0.033388109  0.032984233   0.10353412   0.16990647 
  969000   -1793270.1    15070.639    1223.7671    77.208503    89.153392    81.460908    1997.6618     0.311626   0.31020939   0.45988361     1.081719  0.033174033  0.033384026   0.10328915   0.16984721 
  970000   -1793217.4    15072.586    1745.7458    77.208503    89.153392    81.460908      1997.92   0.31036585   0.31168418    0.4587503    1.0808003   0.03321359  0.033081583   0.10124073    0.1675359 
  971000   -1793248.3    15181.561    1644.0033    77.208503    89.153392    81.460908    2012.3649   0.31097991   0.31209714   0.46196342    1.0850405  0.033893963  0.033206336   0.10441353   0.17151383 
  972000   -1793252.9    15176.352    2254.2936    77.208503    89.153392    81.460908    2011.6745   0.31385816   0.31313688   0.45611501    1.0831101  0.034500378  0.033665929   0.10213636   0.17030267 
  973000   -1793255.2    15041.875    839.27499    77.208503    89.153392    81.460908    1993.8491   0.31186794   0.31150507    0.4548744    1.0782474  0.033915093  0.033039706   0.10112311   0.16807791 
  974000   -1793372.5    15042.495    1085.8587    77.208503    89.153392    81.460908    1993.9312   0.31458615   0.31134171   0.45906647    1.0849943  0.033888994  0.032409557   0.10063153   0.16693008 
  975000   -1793273.5    15066.741     1365.054    77.208503    89.153392    81.460908    1997.1451   0.31278909   0.31245217   0.45508397    1.0803252  0.034211128  0.033615954  0.099896986   0.16772407 
  976000   -1793313.1    15160.841     1252.832    77.208503    89.153392    81.460908    2009.6185   0.31303963   0.31273966   0.45841388    1.0841932  0.034197369  0.033780849   0.10429707   0.17227529 
  977000   -1793245.9    15180.059      1743.66    77.208503    89.153392    81.460908    2012.1658   0.31383719   0.31478342   0.46029387    1.0889145  0.033632229  0.033953695   0.10162281   0.16920874 
  978000   -1793285.6    15011.889    949.38646    77.208503    89.153392    81.460908    1989.8744   0.31261685    0.3151128   0.45984058    1.0875702  0.033156081  0.033391607   0.10350768   0.17005537 
  979000   -1793229.3    15106.051    1928.2731    77.208503    89.153392    81.460908    2002.3559   0.31500754   0.31607836   0.45999323    1.0910791  0.033771405  0.033701471   0.10070271   0.16817559 
  980000   -1793299.9    15189.995      1377.16    77.208503    89.153392    81.460908    2013.4829   0.31423583   0.31499424   0.45781847    1.0870485  0.034760045  0.032963111   0.10052725   0.16825041 
  981000   -1793209.8    15077.572    1742.3203    77.208503    89.153392    81.460908    1998.5808   0.31333418   0.31339803   0.45793688    1.0846691  0.033626872  0.032920823   0.10108413   0.16763183 
  982000   -1793244.5    15098.055    1641.5051    77.208503    89.153392    81.460908     2001.296   0.31276043   0.31535113   0.46097532    1.0890869  0.033285339  0.032891498    0.1021752   0.16835204 
  983000   -1793222.7    15066.558    1997.2368    77.208503    89.153392    81.460908     1997.121   0.31404128   0.31499245   0.46232608    1.0913598  0.033937029  0.032820089   0.10243876   0.16919587 
  984000   -1793321.6    15098.314    1124.8838    77.208503    89.153392    81.460908    2001.3303   0.31608526   0.31531617   0.45913188    1.0905333   0.03371007  0.033797326   0.09928847   0.16679587 
  985000   -1793191.1    15051.103    2120.6495    77.208503    89.153392    81.460908    1995.0723   0.31616268   0.31753718   0.46469431    1.0983942  0.033719405  0.033141931   0.10112207   0.16798341 
  986000     -1793328    15078.173    1312.1641    77.208503    89.153392    81.460908    1998.6605   0.31439858   0.31859547   0.46024176    1.0932358  0.033484393  0.034009977  0.098573504   0.16606787 
  987000   -1793267.6    15151.065    1251.0307    77.208503    89.153392    81.460908    2008.3226   0.31679467     0.315233   0.46328712    1.0953148  0.033719761  0.032010224   0.10063779   0.16636777 
  988000   -1793293.3    15117.659    1276.2188    77.208503    89.153392    81.460908    2003.8945   0.31460486    0.3183701   0.46540503      1.09838  0.032906045  0.033994296   0.10095496    0.1678553 
  989000   -1793218.1    15094.776    2151.7038    77.208503    89.153392    81.460908    2000.8612   0.31467888   0.31894508   0.46199531    1.0956193  0.034415644  0.032661968  0.099798672   0.16687628 
  990000   -1793263.6    15089.603    1747.2815    77.208503    89.153392    81.460908    2000.1756   0.31543641   0.31887017   0.46744948    1.1017561  0.033744916  0.032451777   0.10186164   0.16805833 
  991000   -1793225.7     15109.36    1770.1594    77.208503    89.153392    81.460908    2002.7945   0.31437676   0.31989412   0.46523067    1.0995016  0.033108036  0.034065109  0.098611685   0.16578483 
  992000   -1793274.4     15093.16    1135.8415    77.208503    89.153392    81.460908    2000.6471   0.31591848   0.31852593     0.463815    1.0982594  0.033336104  0.033047724   0.09809598   0.16447981 
  993000   -1793296.7    14979.459    1000.2437    77.208503    89.153392    81.460908    1985.5756   0.31614656   0.31881361   0.46666394    1.1016241  0.033325429  0.033921524  0.098031978   0.16527893 
  994000   -1793246.9     15042.38    2743.1841    77.208503    89.153392    81.460908     1993.916   0.31718324    0.3177969   0.46540501    1.1003851  0.033990364  0.033321951  0.098106229   0.16541854 
  995000   -1793181.1    15154.063     2285.079    77.208503    89.153392    81.460908    2008.7199   0.31530619   0.31974106   0.46268101    1.0977282  0.034161822  0.034213159  0.097424466   0.16579945 
  996000   -1793267.9    15123.876    867.00538    77.208503    89.153392    81.460908    2004.7187   0.31730668   0.31856924   0.46561937    1.1014953   0.03299058  0.032732459  0.098707728   0.16443077 
  997000   -1793195.1    15060.987    1452.9016    77.208503    89.153392    81.460908    1996.3825   0.31680988   0.31972722   0.46390939    1.1004465  0.033017591  0.033590367  0.097277466   0.16388542 
  998000   -1793383.1    15115.745    1518.6441    77.208503    89.153392    81.460908    2003.6408   0.31802547    0.3194405   0.46687259    1.1043386  0.034329535  0.034145304   0.10004044   0.16851528 
  999000   -1793308.4    15196.749    1808.2299    77.208503    89.153392    81.460908    2014.3781   0.31708139   0.31841356   0.46811304     1.103608  0.033226644  0.033240852   0.10159617   0.16806367 
 1000000   -1793296.5    15050.953    1238.0822    77.208503    89.153392    81.460908    1995.0524   0.31911712   0.31815646   0.47063878    1.1079124  0.032892326  0.033882544   0.10173221   0.16850708 
Loop time of 135342 on 15 procs for 1000000 steps with 58365 atoms

Pair  time (%) = 87218.6 (64.4432)
Kspce time (%) = 41303.2 (30.5177)
Neigh time (%) = 2219.85 (1.64018)
Comm  time (%) = 3148.27 (2.32616)
Outpt time (%) = 4.6909 (0.00346596)
Other time (%) = 1447.2 (1.06929)

Nlocal:    3891 ave 3922 max 3834 min
Histogram: 3 0 1 0 0 0 2 1 5 3
Nghost:    18519.7 ave 18649 max 18403 min
Histogram: 5 1 0 0 0 4 0 2 0 3
Neighs:    1.48242e+06 ave 1.53334e+06 max 1.43449e+06 min
Histogram: 1 2 0 4 0 3 2 0 1 2

Total # of neighbors = 22236319
Ave neighs/atom = 380.987
Neighbor list builds = 35680
Dangerous builds = 0
