LAMMPS (28 Jun 2014)
Processor partition = 1
# ------------------ INITIALIZATION -------------------
units		metal           #check!!!!!
boundary	p p p
dimension	3
atom_style    charge
shell		mkdir  xyz
atom_modify map array
atom_modify    sort 0 0.0

variable      mytemp equal  100
# ------------------- Configuration ---------------------
read_data	CrO.dat
  orthogonal box = (0 0 0) to (17.1781 19.8356 13.5931)
  1 by 1 by 1 MPI processor grid
  reading atoms ...
  479 atoms

mass		1  15.9994
mass            2  51.9961

# -------------------- FORCE FIELDS ----------------------
pair_style buck/coul/long 10.0 10.0
pair_coeff    * * 1e-30 1e-30 0.0
pair_coeff    1 2 1204.18 0.3165   0.0
pair_coeff    1 1 9547.96 0.21916  32.0

kspace_style    pppm 0.0001


## Define group
#group deleteG id 420
#delete_atoms group deleteG

group oxygen type 1
288 atoms in group oxygen
group chromium type 2
191 atoms in group chromium


##-------------------- energy minimization ---------------

#compute   aE   all pe/atom
#min_style  fire

thermo          100
thermo_style    custom step pe pxx pyy pzz pxy pxz pyz lx ly lz temp


#minimize      1e-10 1e-10 10000 10000

#--------------------------- run NEB -----------------------------------
reset_timestep	0
fix		1 all neb 10.0

dump            1  all  xyz  10000 MEP.xyz

timestep        0.01
#min_style	quickmin
min_style  fire

neb		0.0 0.001 1000 1000 100 final finial.data
WARNING: Resetting reneighboring criteria during minimization (../min.cpp:168)
PPPM initialization ...
WARNING: System is not charge neutral, net charge = -3 (../kspace.cpp:278)
  G vector (1/distance) = 0.315056
  grid = 18 18 15
  stencil order = 5
  estimated absolute RMS force accuracy = 0.00121169
  estimated relative force accuracy = 8.41472e-05
  using double precision FFTs
  3d grid and FFT values/proc = 13750 4860
Memory usage per processor = 4.77571 Mbytes
Step PotEng Pxx Pyy Pzz Pxy Pxz Pyz Lx Ly Lz Temp 
       0    -14737.18   -135089.21   -135630.59   -34467.644   -1.4005652    15.282968   0.30950886      17.1781      19.8356     13.59308            0 
     100   -14820.893   -81610.591   -81626.502   -177122.91   -5.2500866  -0.78271317   -6.7216311      17.1781      19.8356     13.59308  0.039122325 
     200   -14820.869   -81441.109   -81456.814   -177308.46   -1.6460986   -2.9662509   -10.701125      17.1781      19.8356     13.59308 0.00077147865 
     300   -14820.859   -81421.486   -81443.566   -177270.39  -0.48970144   -2.3701613   -11.045643      17.1781      19.8356     13.59308 5.1820905e-05 
     400   -14820.854   -81411.144   -81435.622   -177259.95   0.52590423   -1.5610938   -10.844817      17.1781      19.8356     13.59308 3.8178253e-05 
     500   -14820.853   -81407.321   -81434.632   -177257.52    1.4926874   -1.1063182   -10.586846      17.1781      19.8356     13.59308 1.1574833e-05 
     600   -14820.852    -81405.65   -81431.685   -177256.25    1.6444729  -0.46092861   -10.466771      17.1781      19.8356     13.59308 2.7829464e-06 
     700   -14820.852    -81404.97   -81431.094   -177255.77    1.7963844  -0.27168641    -10.36001      17.1781      19.8356     13.59308 2.4464481e-07 
     720   -14820.852   -81404.872   -81431.023   -177255.74     1.815463  -0.24701202   -10.341425      17.1781      19.8356     13.59308 8.9837671e-06 
Loop time of 35.1707 on 1 procs for 720 steps with 479 atoms

Minimization stats:
  Stopping criterion = force tolerance
  Energy initial, next-to-last, final = 
        -14737.1796694     -14820.8521547     -14820.8521463
  Force two-norm initial, final = 90.7489 0.000707777
  Force max component initial, final = 14.8755 0.000110724
  Final line search alpha, max atom move = 0 0
  Iterations, force evaluations = 720 720

Pair  time (%) = 13.9119 (39.5553)
Kspce time (%) = 1.78285 (5.06914)
Neigh time (%) = 0 (0)
Comm  time (%) = 0.0623648 (0.17732)
Outpt time (%) = 0.000232935 (0.000662299)
Other time (%) = 19.4134 (55.1976)

Nlocal:    479 ave 479 max 479 min
Histogram: 1 0 0 0 0 0 0 0 0 0
Nghost:    6479 ave 6479 max 6479 min
Histogram: 1 0 0 0 0 0 0 0 0 0
Neighs:    179019 ave 179019 max 179019 min
Histogram: 1 0 0 0 0 0 0 0 0 0

Total # of neighbors = 179019
Ave neighs/atom = 373.735
Neighbor list builds = 0
Dangerous builds = 0
WARNING: Resetting reneighboring criteria during minimization (../min.cpp:168)
Memory usage per processor = 4.77571 Mbytes
Step PotEng Pxx Pyy Pzz Pxy Pxz Pyz Lx Ly Lz Temp 
     720   -14820.852   -81404.872   -81431.023   -177255.74     1.815463  -0.24701202   -10.341425      17.1781      19.8356     13.59308            0 
     800   -14820.823   -81350.537   -81375.981   -177205.92    1.8666928   0.87935669   -10.275414      17.1781      19.8356     13.59308 1.3004256e-06 
     900   -14820.826   -81356.544   -81381.437    -177220.4    1.9492152   0.81176241   -10.530846      17.1781      19.8356     13.59308 4.5202192e-05 
    1000   -14820.826    -81356.44   -81381.291   -177221.32    1.9842419   0.88205496   -10.494193      17.1781      19.8356     13.59308 5.660312e-06 
    1100   -14820.826   -81356.523   -81381.488   -177221.59    2.0089707   0.88316186   -10.466624      17.1781      19.8356     13.59308 4.3618128e-07 
    1200   -14820.826    -81356.41   -81381.382   -177221.58     2.000699   0.91463308    -10.46382      17.1781      19.8356     13.59308 1.512992e-07 
    1300   -14820.826   -81356.366   -81381.261   -177221.54    2.0034363   0.94696782   -10.470406      17.1781      19.8356     13.59308 2.4357311e-10 
    1400   -14820.826   -81356.362   -81381.273   -177221.56    2.0015775   0.94509491    -10.46947      17.1781      19.8356     13.59308 3.4439997e-09 
    1500   -14820.826   -81356.339    -81381.25   -177221.52    2.0039694   0.93912536   -10.466082      17.1781      19.8356     13.59308 1.120142e-09 
    1518   -14820.826   -81356.353   -81381.269   -177221.54    2.0081024    0.9487598   -10.471931      17.1781      19.8356     13.59308 3.6164644e-09 
Loop time of 39.1102 on 1 procs for 798 steps with 479 atoms

Minimization stats:
  Stopping criterion = force tolerance
  Energy initial, next-to-last, final = 
        -14820.8521463      -14820.825727     -14820.8256989
  Force two-norm initial, final = 0.000707777 4.91063e-05
  Force max component initial, final = 0.000110724 4.87499e-06
  Final line search alpha, max atom move = 0 0
  Iterations, force evaluations = 798 798

Pair  time (%) = 15.5586 (39.7816)
Kspce time (%) = 1.8743 (4.79236)
Neigh time (%) = 0 (0)
Comm  time (%) = 0.0689862 (0.176389)
Outpt time (%) = 0.000277519 (0.000709583)
Other time (%) = 21.608 (55.2489)

Nlocal:    479 ave 479 max 479 min
Histogram: 1 0 0 0 0 0 0 0 0 0
Nghost:    6479 ave 6479 max 6479 min
Histogram: 1 0 0 0 0 0 0 0 0 0
Neighs:    180460 ave 180460 max 180460 min
Histogram: 1 0 0 0 0 0 0 0 0 0

Total # of neighbors = 180460
Ave neighs/atom = 376.743
Neighbor list builds = 0
Dangerous builds = 0




