

variable      mytemp equal  1800

# -------------------- FORCE FIELDS ----------------------
pair_style buck/coul/long 10.0 10.0

read_data	NPT_relaxed_1800.data
  orthogonal box = (0.0851417 0.0983139 0.089831) to (77.2159 89.1619 81.4687)
  1 by 5 by 3 MPI processor grid
  reading atoms ...
  58365 atoms
  reading velocities ...
  58365 velocities

pair_coeff    * * 1e-30 1e-30 0.0
pair_coeff    1 2 1204.18 0.3165   0.0
pair_coeff    1 1 9547.96 0.21916  32.0

kspace_style    pppm 0.0001

## Define group
group oxygen type 1
35019 atoms in group oxygen
group chromium type 2
23346 atoms in group chromium


## --------------------- NVT  --------------------
compute allmsd all displace/atom

#dump          2 all custom 25000  dump/dump id type xu yu zu c_allmsd[1] c_allmsd[2] c_allmsd[3] c_allmsd[4]
#dump          1 all xyz 25000 xyz/all.xyz
#dump_modify   1 element O Cr



compute   Omsd oxygen msd com yes
compute   Crmsd chromium msd com yes
variable  OMSDX equal "c_Omsd[1]"
variable  OMSDY equal "c_Omsd[2]"
variable  OMSDZ equal "c_Omsd[3]"
variable  OMSDAll equal "c_Omsd[4]"

variable  CrMSDX equal "c_Crmsd[1]"
variable  CrMSDY equal "c_Crmsd[2]"
variable  CrMSDZ equal "c_Crmsd[3]"
variable  CrMSDAll equal "c_Crmsd[4]"

thermo          1000
thermo_style    custom step pe ke press lx ly lz temp c_Omsd[1]  c_Omsd[2]  c_Omsd[3]  c_Omsd[4]  c_Crmsd[1]  c_Crmsd[2]  c_Crmsd[3]  c_Crmsd[4]


fix          1 all print 100 "${OMSDX}   ${OMSDY}   ${OMSDZ}  ${OMSDAll}  ${CrMSDX}   ${CrMSDY}   ${CrMSDZ}  ${CrMSDAll}" file MSD1800.data screen no
fix          3 all nvt temp ${mytemp} ${mytemp} 0.01
fix          3 all nvt temp 1800 ${mytemp} 0.01
fix          3 all nvt temp 1800 1800 0.01

run      1000000
PPPM initialization ...
  G vector (1/distance) = 0.308857
  grid = 72 80 75
  stencil order = 5
  estimated absolute RMS force accuracy = 0.00179063
  estimated relative force accuracy = 0.000124353
  using double precision FFTs
  3d grid and FFT values/proc = 58144 28800
Memory usage per processor = 12.6294 Mbytes
Step PotEng KinEng Press Lx Ly Lz Temp Omsd[1] Omsd[2] Omsd[3] Omsd[4] Crmsd[1] Crmsd[2] Crmsd[3] Crmsd[4] 
       0   -1794860.6    13529.808   -1317.6966    77.130717    89.063572    81.378838    1793.4198            0 2.1133966e-29 5.1027738e-29 7.2161704e-29            0            0            0            0 
    1000   -1794916.5    13604.059   -1317.7423    77.130717    89.063572    81.378838     1803.262  0.033931173  0.035400544  0.046491877   0.11582359  0.027419999  0.028293333    0.0363052  0.092018532 
    2000   -1794885.5    13542.426   -1385.5521    77.130717    89.063572    81.378838    1795.0923  0.035312838   0.03508244  0.045332315   0.11572759  0.027823474  0.027059964  0.034699076  0.089582513 
    3000   -1794830.1    13562.433   -507.03344    77.130717    89.063572    81.378838    1797.7443  0.035945616   0.03550612  0.046643339   0.11809508   0.02802686  0.027064695  0.036348211  0.091439766 
    4000   -1794842.1    13600.688   -1054.9653    77.130717    89.063572    81.378838    1802.8151  0.035678167  0.036050836  0.045868985   0.11759799  0.027464639  0.027386202  0.037181935  0.092032777 
    5000   -1794810.8    13614.498   -779.23741    77.130717    89.063572    81.378838    1804.6456  0.036809561  0.036113039  0.048331859   0.12125446  0.026661517  0.027097732  0.037116252  0.090875501 
    6000   -1794890.4    13497.567   -1807.1959    77.130717    89.063572    81.378838    1789.1461  0.037479118  0.036746596   0.04771478   0.12194049  0.027571571  0.027855227  0.036933964  0.092360761 
    7000   -1794867.5     13561.49   -1453.0532    77.130717    89.063572    81.378838    1797.6193  0.038857341  0.037194287  0.049581359   0.12563299  0.028133408  0.026875334  0.037578707  0.092587449 
    8000   -1794884.5    13587.346   -1454.7418    77.130717    89.063572    81.378838    1801.0465  0.038818963  0.038077511  0.048949631   0.12584611  0.027861447  0.027175182  0.035753101  0.090789731 
    9000   -1794921.4    13510.585   -1361.9673    77.130717    89.063572    81.378838    1790.8717  0.037459346  0.038384019  0.049767994   0.12561136   0.02666974  0.027602028  0.036342842   0.09061461 
   10000   -1794838.4    13566.552   -870.86794    77.130717    89.063572    81.378838    1798.2903  0.038246555  0.038229878  0.050780829   0.12725726  0.027450129  0.027786233  0.038441515  0.093677878 
   11000   -1794916.1    13564.954   -1343.4348    77.130717    89.063572    81.378838    1798.0785  0.037386485  0.037074127  0.049507004   0.12396762  0.026896068  0.027426843  0.037498385  0.091821295 
   12000   -1794859.3    13574.525    -850.8036    77.130717    89.063572    81.378838    1799.3471  0.038875235   0.03870249  0.051554616   0.12913234  0.028065457  0.027688158  0.039754324  0.095507938 
   13000   -1794828.7    13562.991   -1155.2671    77.130717    89.063572    81.378838    1797.8183  0.039763872  0.039152496  0.051310498   0.13022687  0.028189823  0.027315331  0.037511308  0.093016462 
   14000   -1794869.5    13561.222   -1267.8498    77.130717    89.063572    81.378838    1797.5837  0.038502938  0.038839752  0.050784489   0.12812718  0.026972971  0.027182993  0.039297672  0.093453636 
   15000   -1794880.7    13538.097   -1693.2854    77.130717    89.063572    81.378838    1794.5185  0.039897108  0.040094608  0.050898912   0.13089063  0.027358185  0.028100512  0.038158714  0.093617412 
   16000   -1794994.9    13591.492   -1449.8375    77.130717    89.063572    81.378838    1801.5962  0.039677773  0.039531645  0.051637897   0.13084731   0.02733745  0.026947907  0.038453346  0.092738703 
   17000   -1794852.8    13592.975   -870.69088    77.130717    89.063572    81.378838    1801.7928  0.040151366  0.039046511  0.051738254   0.13093613  0.026978994  0.026748788  0.039100511  0.092828293 
   18000   -1794880.6    13575.462   -1094.4247    77.130717    89.063572    81.378838    1799.4713  0.041216484  0.040651227  0.053654719   0.13552243  0.026883924  0.028527546  0.039960386  0.095371857 
   19000   -1794863.3    13654.381   -1296.3001    77.130717    89.063572    81.378838    1809.9324  0.041111254  0.040677272  0.055208285   0.13699681  0.027345779  0.027753447  0.040457699  0.095556925 
   20000   -1794880.7    13590.023   -563.67885    77.130717    89.063572    81.378838    1801.4014  0.041827844  0.041187281  0.054658005   0.13767313  0.027156618  0.028274863  0.039441227  0.094872708 
   21000   -1794896.1    13554.443   -1489.6935    77.130717    89.063572    81.378838    1796.6851  0.043162904  0.041140827  0.054859637   0.13916337    0.0281962  0.027193621  0.039885192  0.095275013 
   22000   -1794913.2    13611.766   -1304.0263    77.130717    89.063572    81.378838    1804.2835  0.041977628  0.041651032  0.055108089   0.13873675  0.027951936  0.027650088  0.039829174  0.095431199 
   23000   -1794833.4    13499.691   -1437.7061    77.130717    89.063572    81.378838    1789.4277  0.042520484  0.041930805  0.055989229   0.14044052  0.026520437  0.027217341  0.039538171  0.093275948 
   24000   -1794894.6    13556.779    -1310.744    77.130717    89.063572    81.378838    1796.9949  0.042774794  0.042046876  0.055884448   0.14070612  0.027432318  0.027341502  0.039677257  0.094451078 
   25000   -1794875.3    13547.169   -1099.8594    77.130717    89.063572    81.378838     1795.721  0.045003552  0.042501229  0.056006195   0.14351098  0.027814125  0.027573417  0.039104722  0.094492264 
   26000   -1794879.2    13614.946   -575.74251    77.130717    89.063572    81.378838    1804.7051  0.044429774  0.042844474  0.057479849    0.1447541  0.027513355  0.027244257  0.039917363  0.094674975 
   27000   -1794849.4    13635.025   -1198.2442    77.130717    89.063572    81.378838    1807.3665  0.045610528  0.044133371  0.057748923   0.14749282  0.028084245  0.027665839  0.039559161  0.095309245 
   28000   -1794941.4     13522.24   -1487.1242    77.130717    89.063572    81.378838    1792.4166   0.04537906  0.045410893  0.059042454   0.14983241  0.027686113   0.02695285   0.03938213  0.094021093 
   29000   -1794868.4    13546.129   -1035.6646    77.130717    89.063572    81.378838    1795.5832  0.046008835  0.046751148  0.060756219    0.1535162   0.02698019  0.027704588  0.039761001  0.094445778 
   30000     -1794819    13658.818    -1028.821    77.130717    89.063572    81.378838    1810.5204  0.047157737  0.046423941  0.062525148   0.15610683  0.027920988  0.027468649  0.041319187  0.096708824 
   31000   -1794848.2    13535.251    -1369.373    77.130717    89.063572    81.378838    1794.1413  0.047092867  0.047616996  0.062397208   0.15710707  0.027813495  0.027357032   0.04025152  0.095422047 
   32000   -1794993.8    13619.386   -1687.9838    77.130717    89.063572    81.378838    1805.2936  0.047755202  0.048448486  0.063285588   0.15948928  0.027308374  0.028510665  0.042063388  0.097882427 
   33000   -1794830.2    13568.953    -1007.102    77.130717    89.063572    81.378838    1798.6086  0.047524936    0.0488887  0.064517927   0.16093156  0.027510555  0.028413691  0.040727992  0.096652238 
   34000   -1794910.1    13517.215   -1194.8768    77.130717    89.063572    81.378838    1791.7505  0.050193629  0.047900846   0.06463642    0.1627309  0.028869273  0.027259458   0.04109455  0.097223281 
   35000   -1794916.4    13511.054   -1736.0843    77.130717    89.063572    81.378838    1790.9339  0.049165978  0.050711907  0.065944065   0.16582195  0.027246122  0.027606447  0.042966108  0.097818677 
   36000   -1794848.2    13557.313   -959.79791    77.130717    89.063572    81.378838    1797.0657   0.05010242  0.050268626  0.064704866   0.16507591  0.027344464  0.027372807  0.041599179  0.096316451 
   37000     -1794808    13561.707   -933.23176    77.130717    89.063572    81.378838     1797.648  0.049904957  0.050472237   0.06656362   0.16694081  0.028056366  0.027562327  0.044043703  0.099662396 
   38000   -1794835.9    13586.924   -951.26092    77.130717    89.063572    81.378838    1800.9906  0.049716403  0.051012705  0.065668628   0.16639774  0.027742454  0.028484889  0.042710478  0.098937822 
   39000   -1794948.1     13530.35   -1381.5231    77.130717    89.063572    81.378838    1793.4916  0.050973669  0.051338454  0.065844844   0.16815697  0.027972182  0.027796205  0.040526827  0.096295213 
   40000   -1794832.9    13660.446   -898.89066    77.130717    89.063572    81.378838    1810.7362  0.051935151  0.051877696   0.06735908   0.17117193  0.027960516  0.027191148  0.042675515  0.097827178 
   41000   -1794988.3    13548.557   -1781.5095    77.130717    89.063572    81.378838    1795.9049  0.051976379  0.052372724  0.067234493    0.1715836  0.027896329  0.027861711  0.042602951  0.098360991 
   42000   -1794901.5    13580.819   -1473.6756    77.130717    89.063572    81.378838    1800.1814  0.051527451  0.052149316   0.06805834   0.17173511  0.027012291  0.027686157   0.04260983  0.097308278 
   43000   -1794934.2    13583.214   -1177.5317    77.130717    89.063572    81.378838    1800.4989  0.052419811  0.052996743  0.068682117   0.17409867  0.027302567  0.027363099  0.041693356  0.096359023 
   44000   -1794987.3    13573.117   -1154.1239    77.130717    89.063572    81.378838    1799.1605  0.053211964  0.053635501  0.068873868   0.17572133  0.027568153  0.028017029   0.04333661  0.098921793 
   45000   -1794855.3    13637.466   -769.52191    77.130717    89.063572    81.378838    1807.6901  0.053234744  0.054054936  0.068712319     0.176002  0.027088943  0.027765455  0.042021685  0.096876083 
   46000   -1794952.3    13549.346   -1839.2645    77.130717    89.063572    81.378838    1796.0096   0.05488499  0.054365584  0.068089897   0.17734047  0.028075258     0.027916  0.042393339  0.098384597 
   47000     -1794881    13642.582   -675.40951    77.130717    89.063572    81.378838    1808.3683  0.054540287  0.054879844  0.071163145   0.18058328  0.027508875  0.027751867  0.044104032  0.099364774 
   48000   -1794875.4    13524.722   -1027.2442    77.130717    89.063572    81.378838    1792.7456  0.055001976   0.05508787  0.071583534   0.18167338  0.027866177  0.028555279  0.043866953   0.10028841 
   49000   -1794854.1    13558.576   -856.47585    77.130717    89.063572    81.378838     1797.233  0.055411404  0.053857925   0.07147305   0.18074238  0.027726784   0.02757357  0.044167262  0.099467616 
   50000   -1794963.4    13588.473   -1464.2336    77.130717    89.063572    81.378838    1801.1959  0.054651053  0.055482565  0.072013871   0.18214749  0.026923804  0.027114056  0.044105915  0.098143775 
   51000     -1794809    13566.226   -1277.4044    77.130717    89.063572    81.378838    1798.2471  0.055205688  0.056272689  0.072471139   0.18394952   0.02699622  0.028424825  0.044251127  0.099672172 
   52000     -1794837    13633.079   -934.27873    77.130717    89.063572    81.378838    1807.1086  0.054836495  0.056208468  0.072579688   0.18362465   0.02784873  0.027199905  0.043525663  0.098574297 
   53000   -1794856.6    13613.529   -1219.5769    77.130717    89.063572    81.378838    1804.5172  0.056360949   0.05869034  0.073173021   0.18822431  0.027807257  0.029067869  0.044834244   0.10170937 
   54000   -1794887.1    13600.676    -1494.875    77.130717    89.063572    81.378838    1802.8135  0.056577102    0.0564579  0.075086761   0.18812176  0.027367864  0.026886104  0.045403373  0.099657341 
   55000     -1794912    13588.397   -1230.5082    77.130717    89.063572    81.378838    1801.1859  0.055695225  0.057640517  0.074524807   0.18786055  0.026716172  0.027499334  0.042928657  0.097144162 
   56000   -1794936.8    13575.888   -1636.0194    77.130717    89.063572    81.378838    1799.5278  0.056066446  0.058401933  0.075280899   0.18974928  0.027006417  0.027760269  0.042829012  0.097595699 
   57000     -1794902    13574.654   -1015.8344    77.130717    89.063572    81.378838    1799.3642    0.0565155  0.056784356  0.074999184   0.18829904  0.027398003  0.026585001  0.043386194  0.097369197 
   58000   -1794887.3    13524.472   -1235.8409    77.130717    89.063572    81.378838    1792.7124  0.056684827  0.059726723  0.075592334   0.19200388  0.027496735  0.028209769  0.044443595    0.1001501 
   59000   -1794900.7     13574.16   -1509.7193    77.130717    89.063572    81.378838    1799.2988  0.057939431  0.059476889  0.078303805   0.19572013  0.027802385  0.027501432  0.044798225   0.10010204 
   60000   -1794923.8    13577.466   -1546.7627    77.130717    89.063572    81.378838     1799.737  0.057783039  0.059793669  0.076999127   0.19457584  0.027217148  0.027483785  0.045036688   0.09973762 
   61000   -1794942.9    13654.162   -1369.2303    77.130717    89.063572    81.378838    1809.9033  0.059391788  0.059172147   0.07720707     0.195771  0.028371198   0.02729558  0.043954444  0.099621222 
   62000   -1794811.3    13558.496   -711.61812    77.130717    89.063572    81.378838    1797.2224  0.059588692  0.059899529  0.078620657   0.19810888  0.027800117  0.027097783  0.045440322   0.10033822 
   63000   -1794917.9    13592.525    -977.2945    77.130717    89.063572    81.378838    1801.7331  0.060285019  0.059968457  0.077644339   0.19789781  0.027540104   0.02754285  0.044593724  0.099676678 
   64000   -1794778.3    13631.766   -397.40917    77.130717    89.063572    81.378838    1806.9346  0.059830097  0.061175996  0.079749168   0.20075526  0.027646358  0.027813313  0.045422113   0.10088178 
   65000   -1794880.4    13616.902   -985.53555    77.130717    89.063572    81.378838    1804.9643  0.060631556  0.062065616  0.079655603   0.20235277  0.027033737  0.027733477  0.045742268   0.10050948 
   66000   -1794915.9    13591.268   -1405.4802    77.130717    89.063572    81.378838    1801.5665  0.061829465  0.060751997  0.078914574   0.20149604  0.027528999  0.027246124  0.045954492   0.10072961 
   67000   -1794918.2    13599.972   -959.64602    77.130717    89.063572    81.378838    1802.7202  0.062672711  0.062170242  0.079084903   0.20392786  0.027627798   0.02809766  0.045145529   0.10087099 
   68000   -1794935.5    13558.316   -1314.5562    77.130717    89.063572    81.378838    1797.1985  0.062632677  0.062309331  0.081548146   0.20649015  0.027179023  0.027827771  0.046488376   0.10149517 
   69000     -1794903    13658.459   -1409.3098    77.130717    89.063572    81.378838    1810.4729  0.064173642   0.06268265  0.082457127   0.20931342  0.027140729  0.027555563  0.046224442   0.10092073 
   70000   -1794815.6    13581.945   -457.68609    77.130717    89.063572    81.378838    1800.3307  0.064076223  0.063034447  0.081956309   0.20906698  0.028209867  0.027266358  0.045697646   0.10117387 
   71000   -1794851.3    13580.773   -1275.8561    77.130717    89.063572    81.378838    1800.1753   0.06334221  0.063805208  0.081868551   0.20901597  0.026999445  0.027699161  0.045414824   0.10011343 
   72000   -1794871.6    13570.792   -1826.1823    77.130717    89.063572    81.378838    1798.8523  0.064204533  0.064404417  0.082653189   0.21126214  0.027347897  0.027595288  0.045804904   0.10074809 
   73000   -1794940.1    13530.718   -1567.3445    77.130717    89.063572    81.378838    1793.5404  0.066088358  0.064152076  0.082060061    0.2123005  0.027809023  0.027902717  0.044250567  0.099962307 
   74000   -1794946.6    13594.184    -2106.293    77.130717    89.063572    81.378838     1801.953  0.063839383  0.065068109  0.082832089   0.21173958   0.02691811  0.027499857  0.044169325  0.098587292 
   75000   -1794940.7    13569.173   -1365.5279    77.130717    89.063572    81.378838    1798.6377  0.065466531   0.06399398  0.083403365   0.21286388  0.027972367  0.027208012  0.044618154  0.099798532 
   76000   -1794905.8    13576.302    -1154.113    77.130717    89.063572    81.378838    1799.5827  0.065751715   0.06590983   0.08414063   0.21580217  0.027100598  0.027331086  0.045365575  0.099797259 
   77000   -1794952.6    13540.586   -1467.0751    77.130717    89.063572    81.378838    1794.8484  0.065532841   0.06661214  0.084309346   0.21645433  0.027085883  0.027960185  0.045219407   0.10026548 
   78000     -1794916    13612.824   -1317.9535    77.130717    89.063572    81.378838    1804.4237  0.066640657  0.067186718  0.084882818   0.21871019  0.026843919  0.028243589  0.045722322   0.10080983 
   79000   -1794897.5    13519.879   -1296.5914    77.130717    89.063572    81.378838    1792.1036  0.066579269  0.065171806  0.085981053   0.21773213  0.027431175  0.027140892    0.0459009   0.10047297 
   80000   -1794898.1    13540.848   -1523.0982    77.130717    89.063572    81.378838    1794.8831  0.068284963  0.067091328   0.08589281    0.2212691   0.02790488  0.027899686  0.046101583   0.10190615 
   81000   -1794909.1    13546.625   -1567.5891    77.130717    89.063572    81.378838    1795.6489  0.066705008  0.067179102  0.086640847   0.22052496  0.027047252  0.027794895  0.045364948    0.1002071 
   82000   -1794908.8    13616.264   -1138.4445    77.130717    89.063572    81.378838    1804.8797  0.067779497  0.066561887  0.087047243   0.22138863  0.027787999   0.02697762   0.04631951   0.10108513 
   83000   -1794895.8    13612.844   -1246.7895    77.130717    89.063572    81.378838    1804.4265  0.068612117  0.067555813  0.086626704   0.22279463  0.028178708  0.027542855  0.045495398   0.10121696 
   84000   -1794926.7    13578.713   -1337.5987    77.130717    89.063572    81.378838    1799.9023  0.067216434   0.06717513  0.086819552   0.22121112  0.027024498  0.027738211  0.046298668   0.10106138 
   85000   -1794889.4    13591.285   -944.94425    77.130717    89.063572    81.378838    1801.5687  0.069020824  0.068227334  0.086205486   0.22345365  0.027543107  0.028036609  0.044550356   0.10013007 
   86000   -1794926.1    13558.373   -1478.9856    77.130717    89.063572    81.378838    1797.2061  0.070342098  0.067589621  0.086687116   0.22461883  0.027907745  0.026674746  0.044390577  0.098973068 
   87000   -1794961.9    13524.999   -1645.9709    77.130717    89.063572    81.378838    1792.7824  0.069206902  0.068617208  0.087953658   0.22577777  0.027421953  0.027251001  0.045285922  0.099958876 
   88000   -1794932.8    13607.789   -1064.7008    77.130717    89.063572    81.378838    1803.7563   0.06841307  0.070073583  0.088510868   0.22699752  0.026887274  0.027859242  0.044517048  0.099263565 
   89000   -1794953.6    13549.864   -1685.9639    77.130717    89.063572    81.378838    1796.0782  0.068905551  0.069579523  0.087760867   0.22624594  0.027354401  0.027551516  0.043250077  0.098155994 
   90000   -1795003.5    13608.459   -1989.0326    77.130717    89.063572    81.378838    1803.8452  0.070898214  0.069745531  0.089009294   0.22965304   0.02751719  0.027502393  0.043881385  0.098900968 
   91000   -1794836.8    13572.982   -1184.9038    77.130717    89.063572    81.378838    1799.1425  0.070120108  0.070375179  0.090220626   0.23071591  0.028215243  0.028068395  0.044669222   0.10095286 
   92000   -1794921.8    13589.576   -1257.5546    77.130717    89.063572    81.378838    1801.3422   0.07001497  0.069936668  0.089439508   0.22939115  0.027858943  0.027404976  0.044386524  0.099650443 
   93000   -1795018.8    13470.859   -1931.6893    77.130717    89.063572    81.378838    1785.6058  0.068926394  0.069618572  0.089625945   0.22817091  0.027355078  0.027121352  0.043480131  0.097956562 
   94000   -1794871.6        13633   -1545.6174    77.130717    89.063572    81.378838    1807.0982  0.070204064  0.070418328  0.090401344   0.23102374  0.027634491  0.027490741   0.04424343  0.099368662 
   95000   -1794964.5    13587.688   -1881.7776    77.130717    89.063572    81.378838    1801.0919  0.071194055  0.070147918  0.090837503   0.23217948  0.028107192  0.027504486  0.044773355   0.10038503 
   96000   -1794902.5    13569.137   -1371.2825    77.130717    89.063572    81.378838    1798.6329  0.070606065  0.071766782  0.091805033   0.23417788  0.027002346  0.027891181  0.044661002  0.099554529 
   97000   -1794941.8    13594.906   -1085.8602    77.130717    89.063572    81.378838    1802.0486  0.070490065    0.0709071  0.092599171   0.23399634  0.027364803  0.026465871  0.044726827  0.098557501 
   98000   -1794882.5    13536.831   -1156.6267    77.130717    89.063572    81.378838    1794.3507  0.072160631   0.07135741  0.092427096   0.23594514  0.027688602  0.027148831  0.043907781  0.098745215 
   99000   -1794906.4    13584.268   -1612.1535    77.130717    89.063572    81.378838    1800.6386   0.07233933  0.071794195  0.092704571    0.2368381  0.027201062   0.02702126  0.042660391  0.096882713 
  100000   -1794851.4    13582.187   -882.26574    77.130717    89.063572    81.378838    1800.3627  0.072394974  0.072162971  0.092318165   0.23687611  0.027200746  0.027466993  0.041699334  0.096367073 
  101000     -1794977    13569.943   -1783.6538    77.130717    89.063572    81.378838    1798.7397  0.073163155   0.07231044  0.092432205    0.2379058  0.027745713  0.027536776  0.042208964  0.097491453 
  102000   -1794966.4    13564.782   -1376.6166    77.130717    89.063572    81.378838    1798.0556  0.073419536  0.073259531  0.095661782   0.24234085   0.02701569   0.02710998  0.043855405  0.097981075 
  103000   -1794839.3    13533.483   -1574.4936    77.130717    89.063572    81.378838    1793.9069  0.074678271  0.074009598  0.093197822   0.24188569  0.027480941  0.027726718  0.042851141  0.098058799 
  104000   -1794981.2    13548.643   -1803.5512    77.130717    89.063572    81.378838    1795.9164  0.075505838  0.074168745   0.09671319   0.24638777  0.028116325   0.02708716  0.043119652  0.098323136 
  105000   -1794996.2    13562.592   -1909.9942    77.130717    89.063572    81.378838    1797.7654   0.07580061  0.074263422  0.095174206   0.24523824  0.027929746  0.028139949  0.043566973  0.099636669 
  106000   -1794866.4    13572.746   -1011.9206    77.130717    89.063572    81.378838    1799.1114  0.075281081  0.073741918  0.094673326   0.24369633  0.027429368  0.027834978  0.042103133   0.09736748 
  107000   -1794848.4    13663.275   -1199.3844    77.130717    89.063572    81.378838    1811.1113  0.076920575  0.075507831    0.0969187   0.24934711  0.028892289  0.027739015  0.046086327   0.10271763 
  108000     -1794897    13658.392   -935.17749    77.130717    89.063572    81.378838     1810.464   0.07628515  0.074386825  0.097029535   0.24770151  0.028378348   0.02764103  0.043932782   0.09995216 
  109000   -1795047.5    13572.945   -1732.9254    77.130717    89.063572    81.378838    1799.1377  0.077063203  0.074641846  0.098641499   0.25034655  0.028364231  0.027828196  0.045570671    0.1017631 
  110000   -1794834.3    13590.716   -1424.8435    77.130717    89.063572    81.378838    1801.4933   0.07763914  0.076311899   0.09935824   0.25330928  0.027713124  0.027316898  0.044097699   0.09912772 
  111000   -1794924.4    13630.478   -1271.4772    77.130717    89.063572    81.378838    1806.7639  0.077316554  0.076562501  0.098556905   0.25243596  0.027451983  0.027685988   0.04397179  0.099109761 
  112000   -1794837.5    13569.116   -1148.4816    77.130717    89.063572    81.378838    1798.6301  0.077176365   0.07518797   0.10032989   0.25269422  0.028167342  0.027324599  0.045717204   0.10120915 
  113000   -1794932.1    13525.021   -2075.8909    77.130717    89.063572    81.378838    1792.7853  0.078048104  0.075499703    0.1014616    0.2550094   0.02790236  0.027257293  0.045976736   0.10113639 
  114000   -1794929.2    13582.338   -1487.5805    77.130717    89.063572    81.378838    1800.3828  0.077612509   0.07791531   0.10094429    0.2564721  0.027478477  0.028161667  0.048087586   0.10372773 
  115000   -1794960.1    13535.681   -1558.7786    77.130717    89.063572    81.378838    1794.1982  0.079167032  0.076867786   0.10220027   0.25823509  0.027581068  0.028766122  0.046695059   0.10304225 
  116000   -1794867.3    13552.336   -1498.5131    77.130717    89.063572    81.378838    1796.4059  0.079782989  0.079461231   0.10240769   0.26165191   0.02795681  0.028568655  0.047484099   0.10400956 
  117000   -1794944.6    13610.207   -1019.9063    77.130717    89.063572    81.378838     1804.077  0.080145613  0.079874628   0.10342313   0.26344337  0.027070774  0.028279914  0.047563109    0.1029138 
  118000   -1794896.5    13587.595   -1136.2639    77.130717    89.063572    81.378838    1801.0796  0.080213235  0.080110234   0.10410882   0.26443229   0.02744762  0.028368089  0.046602855   0.10241856 
  119000   -1794852.3    13583.936   -983.99898    77.130717    89.063572    81.378838    1800.5946  0.082033323  0.079513553   0.10461298   0.26615986   0.02870507  0.028606866  0.048118486   0.10543042 
  120000   -1794864.1     13568.81   -899.24533    77.130717    89.063572    81.378838    1798.5896  0.081566592  0.079270125   0.10281476   0.26365147  0.028426712  0.028447957  0.045143032    0.1020177 
  121000   -1794863.3    13535.592     -1033.92    77.130717    89.063572    81.378838    1794.1864  0.081696843  0.080749144   0.10410344   0.26654943    0.0288819  0.028436931  0.046887738   0.10420657 
  122000   -1795001.2    13559.826   -1949.3996    77.130717    89.063572    81.378838    1797.3988  0.082188439  0.081798282   0.10473207   0.26871879  0.028497808  0.028464552  0.046070379   0.10303274 
  123000   -1794884.9    13518.257   -496.39647    77.130717    89.063572    81.378838    1791.8887  0.081425164  0.080098523   0.10618602   0.26770971  0.027475374  0.027344694  0.047147498   0.10196757 
  124000   -1794986.8    13549.045   -1593.1695    77.130717    89.063572    81.378838    1795.9697  0.081851659  0.080682767   0.10538332   0.26791775  0.027295715  0.027532107  0.046372325   0.10120015 
  125000   -1794828.1    13540.904   -1278.2511    77.130717    89.063572    81.378838    1794.8905  0.081998756  0.080511197   0.10762233   0.27013228   0.02787305  0.027835147  0.046930574   0.10263877 
  126000   -1794894.2    13538.992   -1502.9999    77.130717    89.063572    81.378838    1794.6371  0.082259167  0.081315801   0.10578915   0.26936411  0.027459924  0.028004694   0.04540588    0.1008705 
  127000   -1794807.9    13552.685   -602.36342    77.130717    89.063572    81.378838    1796.4522  0.083388716  0.081608722   0.10799917    0.2729966  0.027310161  0.027800141  0.046696977   0.10180728 
  128000   -1794932.2    13644.849   -938.59108    77.130717    89.063572    81.378838    1808.6688  0.083696371  0.081026343   0.10710749   0.27183021  0.027548088  0.027754012  0.045063129   0.10036523 
  129000   -1794923.4    13594.178   -1448.4172    77.130717    89.063572    81.378838    1801.9522  0.084883287  0.081257569   0.10744231   0.27358317  0.028117611  0.027355962  0.046487256   0.10196083 
  130000   -1794815.9    13581.297   -68.535846    77.130717    89.063572    81.378838    1800.2448  0.083292432   0.08170377   0.10792305   0.27291925  0.028318851  0.028159258  0.046213075   0.10269118 
  131000   -1794887.5    13544.685   -1237.0237    77.130717    89.063572    81.378838    1795.3918  0.083146999   0.08211235    0.1075806   0.27283995  0.027351039   0.02751092  0.046584434   0.10144639 
  132000   -1794952.2    13592.971   -1661.9655    77.130717    89.063572    81.378838    1801.7922  0.084169271  0.081965207   0.11115714   0.27729162  0.027273432  0.027366737  0.048102063   0.10274223 
  133000   -1794928.8    13671.717   -1240.4379    77.130717    89.063572    81.378838    1812.2302  0.084828401  0.082438093   0.10959459   0.27686109  0.027764386  0.027951201  0.048073108   0.10378869 
  134000   -1794841.1    13512.493   -1264.8068    77.130717    89.063572    81.378838    1791.1246  0.086193815  0.083781166   0.11115459   0.28112957  0.029029569  0.027601162  0.048906554   0.10553728 
  135000   -1794854.6    13638.732   -911.28883    77.130717    89.063572    81.378838    1807.8579   0.08627739  0.084236012   0.11105225   0.28156566  0.027938816  0.028300133   0.04797606   0.10421501 
  136000     -1794852    13569.523   -978.50359    77.130717    89.063572    81.378838     1798.684   0.08480949  0.083303333    0.1119693   0.28008212  0.027992475  0.028153235  0.049040403   0.10518611 
  137000   -1794881.6    13632.221   -437.26434    77.130717    89.063572    81.378838     1806.995  0.084925859  0.084199813   0.11238625   0.28151192  0.027436906  0.028368081  0.048904709    0.1047097 
  138000   -1794869.2    13618.097   -978.67168    77.130717    89.063572    81.378838    1805.1227  0.085114553  0.084226232   0.11212385   0.28146464  0.027524696  0.027681607  0.048819717   0.10402602 
  139000   -1794953.9    13565.813   -1767.6997    77.130717    89.063572    81.378838    1798.1923  0.085903229  0.084097552   0.11271902    0.2827198  0.027806667  0.027765122  0.049794864   0.10536665 
  140000   -1794833.5    13575.608   -851.13972    77.130717    89.063572    81.378838    1799.4907  0.085760285  0.084956149   0.11179336   0.28250979  0.027877488   0.02779373   0.04885586   0.10452708 
  141000   -1794909.7    13545.607   -919.92141    77.130717    89.063572    81.378838    1795.5139  0.086734229  0.085381198   0.11263195   0.28474738  0.027652424  0.028522453  0.050538568   0.10671344 
  142000   -1794910.3    13499.865    -1617.738    77.130717    89.063572    81.378838    1789.4507  0.086221251  0.085710204   0.11320431   0.28513577  0.027711169  0.028787575  0.049422914   0.10592166 
  143000     -1794973    13602.583   -1856.8329    77.130717    89.063572    81.378838    1803.0663  0.086867407  0.085273935   0.11195522   0.28409656  0.027633008  0.027562988  0.045734372   0.10093037 
  144000   -1794909.3    13589.049   -1495.8279    77.130717    89.063572    81.378838    1801.2723  0.087204436  0.084054058    0.1126672   0.28392569  0.027491475  0.028390665  0.048722658    0.1046048 
  145000     -1794925    13643.718   -1336.7817    77.130717    89.063572    81.378838    1808.5189  0.087024956  0.085678177   0.11544778   0.28815091  0.027572613  0.028173772  0.049423167   0.10516955 
  146000     -1794898    13547.094   -1433.9976    77.130717    89.063572    81.378838     1795.711  0.088039962  0.084987415   0.11572991   0.28875728  0.027705717  0.028342956  0.049964916   0.10601359 
  147000   -1794922.2    13614.549   -538.09266    77.130717    89.063572    81.378838    1804.6525  0.088268016  0.084914512    0.1141601   0.28734263  0.027511305  0.027615132  0.048599631   0.10372607 
  148000   -1794881.6    13564.448   -845.37183    77.130717    89.063572    81.378838    1798.0113  0.087068166   0.08527146   0.11548885   0.28782848  0.026889252   0.02799453   0.04777865   0.10266243 
  149000   -1794812.6    13536.078   -892.90981    77.130717    89.063572    81.378838    1794.2508   0.08819896  0.085383032   0.11644884   0.29003083  0.027802861  0.028181879  0.048750396   0.10473514 
  150000   -1794909.3    13573.407    -1317.455    77.130717    89.063572    81.378838     1799.199  0.087081895  0.087117399   0.11644992   0.29064921  0.027264774  0.027835473  0.049082895   0.10418314 
  151000   -1794845.1    13572.655   -1132.3361    77.130717    89.063572    81.378838    1799.0993  0.088118966  0.088439416   0.11720842    0.2937668  0.027485607  0.029329508  0.049149702   0.10596482 
  152000     -1794905    13589.185   -730.06291    77.130717    89.063572    81.378838    1801.2904  0.088904516  0.087247795   0.11705817   0.29321048  0.027805758  0.028267665  0.049468722   0.10554215 
  153000   -1794922.2     13564.46   -1401.2126    77.130717    89.063572    81.378838     1798.013  0.086793457  0.087590282   0.11589147   0.29027521  0.027094592  0.029100632  0.048093677    0.1042889 
  154000   -1794905.5    13569.013   -696.42993    77.130717    89.063572    81.378838    1798.6165  0.088072524  0.088959007   0.11730603   0.29433756  0.027980437  0.028459942  0.050087999   0.10652838 
  155000   -1794879.3    13550.445   -968.73698    77.130717    89.063572    81.378838    1796.1552  0.088021128  0.089356328   0.11707156   0.29444901  0.027118594  0.029301336  0.048601684   0.10502161 
  156000   -1794901.3    13625.532    -1576.734    77.130717    89.063572    81.378838    1806.1083  0.088263024  0.089253396   0.11705136   0.29456778  0.027351062  0.028378603  0.048502932    0.1042326 
  157000   -1794852.5    13625.124   -713.05737    77.130717    89.063572    81.378838    1806.0541  0.088456691  0.089539319   0.11864635   0.29664236  0.027980168  0.028395714  0.047759309   0.10413519 
  158000   -1794948.2    13479.762   -1823.4227    77.130717    89.063572    81.378838     1786.786  0.088454153   0.08877994   0.11849627   0.29573036  0.026519028  0.028401533  0.047257132   0.10217769 
  159000   -1794808.6    13606.723   -1006.0736    77.130717    89.063572    81.378838     1803.615  0.090694716  0.088672117   0.12027848   0.29964531  0.027414262  0.027479912  0.047409808   0.10230398 
  160000   -1794883.8    13537.469   -1062.5008    77.130717    89.063572    81.378838    1794.4352    0.0912026  0.090030482   0.12252658   0.30375967  0.027713424  0.027963893  0.048983659   0.10466098 
  161000   -1794853.3    13528.466   -501.04595    77.130717    89.063572    81.378838    1793.2419  0.093039704  0.092383866   0.12151177   0.30693534  0.028371183  0.029069603  0.049111462   0.10655225 
  162000   -1794957.2    13552.456   -1688.5628    77.130717    89.063572    81.378838    1796.4219  0.092740247  0.089915773   0.12255683   0.30521285  0.028584704  0.027117016  0.050052218   0.10575394 
  163000   -1794853.4    13619.109   -795.69272    77.130717    89.063572    81.378838    1805.2569  0.092512272  0.090594715    0.1222835   0.30539049  0.027614027  0.027986125  0.049185628   0.10478578 
  164000   -1794926.4    13616.878   -1265.3186    77.130717    89.063572    81.378838    1804.9612  0.092525837  0.091713018   0.12157569   0.30581455  0.028454156  0.028386187  0.049216743   0.10605709 
  165000   -1794878.1    13533.675   -1074.3045    77.130717    89.063572    81.378838    1793.9323  0.092430516  0.092335704   0.12084965   0.30561587  0.027729756  0.027863685  0.049032727   0.10462617 
  166000   -1794884.3     13542.72   -1442.7554    77.130717    89.063572    81.378838    1795.1312  0.092231907  0.091590475   0.12256587   0.30638825  0.028152495  0.027176455  0.049185096   0.10451405 
  167000   -1794856.5    13474.007   -1048.8072    77.130717    89.063572    81.378838    1786.0232  0.092770933  0.092471402   0.12387045   0.30911279  0.028019462  0.028757078  0.052743542   0.10952008 
  168000   -1794919.2     13596.53   -1236.5397    77.130717    89.063572    81.378838     1802.264  0.093359092  0.092545038   0.12304311   0.30894724  0.028028266  0.028602873  0.050448239   0.10707938 
  169000   -1794998.5    13580.398   -1603.7094    77.130717    89.063572    81.378838    1800.1256  0.091534428   0.09192072   0.12304017   0.30649532  0.026402902  0.028088931  0.050711075   0.10520291 
  170000     -1794905    13552.038   -1431.2979    77.130717    89.063572    81.378838    1796.3664  0.092519201  0.092793928   0.12423957    0.3095527  0.028056192  0.029279099  0.050280151   0.10761544 
  171000   -1794849.2    13560.213   -1003.7472    77.130717    89.063572    81.378838      1797.45  0.094170408   0.09299098   0.12460426   0.31176565  0.028636388  0.028584433  0.050886112   0.10810693 
  172000   -1794963.6    13573.527   -1456.4933    77.130717    89.063572    81.378838    1799.2148  0.093059864  0.091518749   0.12277203   0.30735064  0.027958954  0.027538873  0.049447826   0.10494565 
  173000   -1794883.3    13552.208   -1241.8237    77.130717    89.063572    81.378838    1796.3889  0.093380059  0.092740467   0.12526941   0.31138993  0.027445525  0.028215282  0.050092445   0.10575325 
  174000   -1794967.8    13656.128   -1562.9317    77.130717    89.063572    81.378838    1810.1639  0.093476246  0.092637831   0.12351961   0.30963369  0.028096739  0.028505999  0.050483202   0.10708594 
  175000   -1794893.6    13558.617   -867.96026    77.130717    89.063572    81.378838    1797.2385  0.094974244  0.091877716   0.12497724    0.3118292  0.028198413  0.027853022  0.049210949   0.10526238 
  176000   -1794959.5    13535.106   -1489.0009    77.130717    89.063572    81.378838     1794.122  0.093641138  0.092987343   0.12544469   0.31207317  0.027977563  0.028566505  0.048702207   0.10524628 
  177000   -1794980.4    13599.488    -1627.179    77.130717    89.063572    81.378838     1802.656  0.093975088    0.0933164   0.12429767   0.31158916  0.027754265  0.028540521  0.048133975   0.10442876 
  178000   -1794892.1    13579.038   -1574.5379    77.130717    89.063572    81.378838    1799.9454  0.094352041  0.094091692   0.12615713   0.31460087  0.027137715  0.028131992  0.049265242   0.10453495 
  179000     -1794888    13622.424   -1387.8205    77.130717    89.063572    81.378838    1805.6963  0.095216857  0.095382095   0.12682368   0.31742264  0.027260488  0.029214397  0.050307822   0.10678271 
  180000   -1794781.2    13584.213   -471.57379    77.130717    89.063572    81.378838    1800.6314  0.095928258  0.095080488   0.12906606   0.32007481  0.027178726  0.028004419  0.050738023   0.10592117 
  181000   -1794864.8    13561.686    -1320.638    77.130717    89.063572    81.378838    1797.6452   0.09549987  0.096047714   0.12763506   0.31918265  0.027353115  0.028076672  0.050078185   0.10550797 
  182000   -1794828.6    13543.294   -602.37734    77.130717    89.063572    81.378838    1795.2073  0.096720156  0.096017879   0.12871039   0.32144842  0.027475193  0.027554857  0.050254944   0.10528499 
  183000   -1794944.5    13620.103   -1388.7922    77.130717    89.063572    81.378838    1805.3886   0.09721641  0.095455566   0.12968096   0.32235294  0.027765358  0.027550994  0.051617787   0.10693414 
  184000   -1794942.9    13549.666   -1741.9276    77.130717    89.063572    81.378838     1796.052  0.096811104  0.096318893   0.13047925   0.32360925  0.027409047  0.027914772  0.050334533   0.10565835 
  185000   -1794928.8    13532.125   -1531.0045    77.130717    89.063572    81.378838    1793.7269  0.097596207  0.097376195   0.12949055   0.32446296  0.027962598  0.028198943  0.050880809   0.10704235 
  186000     -1794890    13564.778   -1288.4135    77.130717    89.063572    81.378838    1798.0551  0.098328377  0.096565363   0.13019932   0.32509306  0.027111861  0.027903448  0.049350959   0.10436627 
  187000   -1794847.2    13641.737   -444.45412    77.130717    89.063572    81.378838    1808.2562  0.099124641  0.097378152   0.13118474   0.32768753  0.028465062   0.02852511  0.049559412   0.10654958 
  188000   -1794944.5    13643.713   -1420.0296    77.130717    89.063572    81.378838    1808.5182   0.09950225  0.099221856   0.13245927   0.33118338  0.028479589  0.028317454  0.051081922   0.10787897 
  189000   -1794911.7    13611.159   -1269.5516    77.130717    89.063572    81.378838     1804.203  0.099292081  0.097906664   0.13077226     0.327971   0.02783402   0.02743405  0.049537228    0.1048053 
  190000   -1794867.7    13596.526   -956.51929    77.130717    89.063572    81.378838    1802.2634  0.099323699   0.10019297   0.13445927   0.33397593   0.02720244  0.027951983  0.051158562   0.10631299 
  191000   -1794952.9    13597.897   -1799.6529    77.130717    89.063572    81.378838    1802.4452   0.10056688   0.10029526   0.13423328   0.33509542  0.027983101  0.028119833  0.049250315   0.10535325 
  192000   -1794914.2    13513.775   -1083.6534    77.130717    89.063572    81.378838    1791.2945   0.10015396  0.098823622   0.13361835   0.33259593  0.027644367  0.027601107  0.048502872   0.10374835 
  193000   -1794873.4    13566.751   -1261.5485    77.130717    89.063572    81.378838    1798.3166   0.10131643   0.10011082   0.13354969   0.33497695  0.027815367  0.028546819  0.047950173   0.10431236 
  194000   -1794917.8    13588.268   -995.23749    77.130717    89.063572    81.378838    1801.1688   0.10177101    0.1007336   0.13619397   0.33869858  0.027217884  0.028452648  0.048663185   0.10433372 
  195000   -1794847.2    13620.637   -1145.6135    77.130717    89.063572    81.378838    1805.4594   0.10206641   0.10192513   0.13642279   0.34041432  0.026949492  0.028651018  0.049343087    0.1049436 
  196000   -1794918.8    13465.189   -1321.3579    77.130717    89.063572    81.378838    1784.8543   0.10235224   0.10096946   0.13579742   0.33911912  0.027568636  0.028285855  0.049836505     0.105691 
  197000   -1794912.6    13531.726   -1371.3751    77.130717    89.063572    81.378838     1793.674   0.10321856   0.10266812   0.13708843    0.3429751  0.027651859  0.029470989  0.051017255    0.1081401 
  198000   -1794936.2    13623.512   -923.67299    77.130717    89.063572    81.378838    1805.8406   0.10361732   0.10193193   0.13783688   0.34338612  0.028352008  0.027591432  0.050473903   0.10641734 
  199000   -1794929.7    13523.766   -1628.4344    77.130717    89.063572    81.378838    1792.6188   0.10283132   0.10233863   0.13856571   0.34373566  0.027173496  0.027288584  0.051610402   0.10607248 
  200000   -1794929.8    13621.164    -1318.557    77.130717    89.063572    81.378838    1805.5292   0.10300011   0.10267066   0.13770796   0.34337873   0.02752542  0.027516982  0.050494194    0.1055366 
  201000   -1794930.3     13633.38   -1282.2469    77.130717    89.063572    81.378838    1807.1485    0.1047671   0.10278933   0.13878322   0.34633966  0.027965043  0.027780533  0.051810517   0.10755609 
  202000   -1794955.3    13633.622   -1863.0063    77.130717    89.063572    81.378838    1807.1806   0.10463154   0.10368991   0.13906838   0.34738982  0.028372261  0.027557933  0.051686428   0.10761662 
  203000     -1794859    13661.344   -680.10281    77.130717    89.063572    81.378838    1810.8553   0.10363772   0.10346285   0.13806804   0.34516862  0.027296612  0.027950753  0.050065254   0.10531262 
  204000   -1794837.6    13558.669   -735.55618    77.130717    89.063572    81.378838    1797.2454   0.10363494    0.1048715   0.13974905   0.34825549  0.027335348  0.028384033  0.052090155   0.10780954 
  205000   -1794837.1    13637.282   -926.67025    77.130717    89.063572    81.378838    1807.6658   0.10470153   0.10452915   0.13916231   0.34839299  0.027465457  0.027777972  0.052979527   0.10822296 
  206000   -1794780.2    13623.418   -540.04857    77.130717    89.063572    81.378838    1805.8281   0.10514199   0.10623201   0.14016446   0.35153846  0.028448988  0.027104255  0.054269765   0.10982301 
  207000   -1794946.8     13529.71   -1746.7875    77.130717    89.063572    81.378838    1793.4067   0.10392602   0.10786678   0.14060422   0.35239702  0.027553348   0.02752302  0.052994875   0.10807124 
  208000   -1794867.5    13610.189   -666.09744    77.130717    89.063572    81.378838    1804.0745   0.10479554   0.10972282   0.14079952   0.35531788  0.027214567  0.027769628  0.053874769   0.10885896 
  209000   -1794899.3    13540.938   -1170.9844    77.130717    89.063572    81.378838    1794.8951   0.10503836   0.11021712   0.14122744   0.35648293  0.027684595  0.028406304  0.052182238   0.10827314 
  210000     -1794962    13548.675   -1635.0707    77.130717    89.063572    81.378838    1795.9206   0.10461105   0.10955416   0.14054739   0.35471261  0.027166944  0.028077528  0.050436194   0.10568067 
  211000   -1794898.7    13638.107   -896.36712    77.130717    89.063572    81.378838    1807.7751   0.10506441   0.10928988   0.14191534   0.35626963   0.02832738  0.028456097  0.052137563   0.10892104 
  212000   -1794860.5    13526.659   -1561.1742    77.130717    89.063572    81.378838    1793.0023   0.10581674   0.10873237   0.14152502   0.35607413  0.027933695  0.027666482  0.050936199   0.10653638 
  213000   -1794943.8    13507.249   -1340.8834    77.130717    89.063572    81.378838    1790.4294   0.10549227   0.10957064   0.14317828   0.35824119  0.027095842   0.02768082  0.052567783   0.10734445 
  214000   -1794941.4     13593.23   -1153.0218    77.130717    89.063572    81.378838    1801.8265   0.10594743   0.11150321   0.14228241   0.35973305  0.027951866  0.028302463  0.050103049   0.10635738 
  215000   -1794834.4    13578.096   -170.86051    77.130717    89.063572    81.378838    1799.8205   0.10781966   0.11067452   0.14352817   0.36202235  0.027649411  0.027819302  0.051058167   0.10652688 
  216000   -1794924.8    13586.661   -1123.0191    77.130717    89.063572    81.378838    1800.9558   0.10840318   0.10971806   0.14392217    0.3620434   0.02751317  0.027649265  0.050055507   0.10521794 
  217000   -1794864.7    13550.454   -1238.5518    77.130717    89.063572    81.378838    1796.1565   0.10924706   0.11164296   0.14390266   0.36479269  0.028116077  0.028967798  0.049925233   0.10700911 
  218000   -1794871.6    13612.038   -981.68809    77.130717    89.063572    81.378838    1804.3196   0.10940756   0.11191617   0.14337346    0.3646972  0.028031523  0.028659977  0.049635912   0.10632741 
  219000   -1794827.5    13633.509   -90.311063    77.130717    89.063572    81.378838    1807.1657   0.10860293   0.11301583   0.14406169   0.36568044  0.027386767  0.028096115  0.049394995   0.10487788 
  220000   -1794927.3    13519.034   -1360.1879    77.130717    89.063572    81.378838    1791.9916   0.11042358   0.11242392   0.14760192   0.37044942  0.028329028   0.02790358  0.052522648   0.10875526 
  221000   -1794939.6    13603.494   -1497.5656    77.130717    89.063572    81.378838    1803.1871   0.11026374   0.11300665   0.14458211   0.36785249  0.028010504   0.02786723  0.049685105   0.10556284 
  222000   -1794934.3    13624.167    -1197.998    77.130717    89.063572    81.378838    1805.9274   0.10950173   0.11443001   0.14850085    0.3724326  0.027422029  0.028595175   0.05254035   0.10855755 
  223000   -1794904.9    13590.333   -1752.7334    77.130717    89.063572    81.378838    1801.4425   0.11175116   0.11361668   0.14760552   0.37297336  0.027270563  0.028080196  0.050724305   0.10607506 
  224000   -1794911.7    13534.334   -1491.2748    77.130717    89.063572    81.378838    1794.0197   0.11134775   0.11373717   0.14787166   0.37295659  0.027674255  0.027903273  0.051821062   0.10739859 
  225000   -1794910.4    13518.292   -1387.4675    77.130717    89.063572    81.378838    1791.8932   0.11292369   0.11397914   0.14719831   0.37410114  0.028030685  0.028106661   0.05061817   0.10675552 
  226000   -1794886.7    13500.626   -1612.6799    77.130717    89.063572    81.378838    1789.5516   0.11225283   0.11429925   0.14867956   0.37523165  0.027230152  0.028438618  0.051518327    0.1071871 
  227000   -1794930.3    13477.673    -1639.498    77.130717    89.063572    81.378838     1786.509     0.111937   0.11391113   0.14731151   0.37315964  0.027205518  0.028191203  0.051016179    0.1064129 
  228000   -1794977.8    13614.861   -1591.9594    77.130717    89.063572    81.378838    1804.6938   0.11277079   0.11484627   0.14738781   0.37500487  0.027951032  0.028536455  0.050384841   0.10687233 
  229000   -1794877.8    13602.921   -1180.9294    77.130717    89.063572    81.378838    1803.1112   0.11344474   0.11672017   0.14895238    0.3791173   0.02820992  0.028715175  0.051845592   0.10877069 
  230000   -1794872.8    13603.243   -1069.5055    77.130717    89.063572    81.378838    1803.1538   0.11296436   0.11536253   0.14775848   0.37608538   0.02766784  0.028260569  0.050228408   0.10615682 
  231000   -1794848.8    13568.739   -952.97768    77.130717    89.063572    81.378838    1798.5801   0.11354702   0.11666455   0.14990486   0.38011643  0.026949944  0.028303496  0.050672148   0.10592559 
  232000   -1794867.4    13505.846   -1247.9934    77.130717    89.063572    81.378838    1790.2434   0.11358491   0.11631712   0.14947935   0.37938139  0.027407723  0.027987146  0.049476109   0.10487098 
  233000   -1794868.6    13541.948    -694.0528    77.130717    89.063572    81.378838    1795.0289   0.11519694   0.11719821   0.14971889   0.38211403  0.029121322  0.028479924  0.050041714   0.10764296 
  234000   -1794857.7    13559.434   -1151.8664    77.130717    89.063572    81.378838    1797.3467   0.11337986   0.11751981   0.14951773    0.3804174  0.027069617  0.027739042  0.048261607   0.10307027 
  235000   -1794871.8     13469.04   -1495.4044    77.130717    89.063572    81.378838    1785.3647   0.11505923   0.11739645   0.15006198   0.38251767  0.027717393  0.028526121  0.049812131   0.10605565 
  236000   -1794946.1    13514.328   -1692.5884    77.130717    89.063572    81.378838    1791.3678   0.11457989   0.11725126   0.15115994   0.38299109  0.027499907  0.028495884  0.048750425   0.10474622 
  237000   -1794987.9    13580.461   -1501.9807    77.130717    89.063572    81.378838     1800.134   0.11550644   0.11755391    0.1512974   0.38435775  0.028192276  0.027758215  0.048737035   0.10468753 
  238000   -1794998.1    13600.249   -1650.1368    77.130717    89.063572    81.378838    1802.7569   0.11431934   0.11810635   0.14885902    0.3812847  0.027689053  0.028054201  0.049101788   0.10484504 
  239000   -1794955.8    13567.533   -1051.1137    77.130717    89.063572    81.378838    1798.4203   0.11451481   0.11779234   0.15045993   0.38276708  0.027476727  0.027974572  0.049648795   0.10510009 
  240000   -1794894.3    13657.993    -572.2072    77.130717    89.063572    81.378838     1810.411   0.11486815   0.11909715   0.15281635   0.38678164  0.027030087  0.027902866  0.049591911   0.10452486 
  241000   -1794902.6    13565.179   -1655.7794    77.130717    89.063572    81.378838    1798.1083   0.11531927   0.11924092   0.14995434   0.38451453  0.028134697  0.028602906  0.049508182   0.10624579 
  242000   -1794973.6    13582.984   -1415.6769    77.130717    89.063572    81.378838    1800.4684     0.116024   0.11840903   0.15129322   0.38572625  0.028212848  0.027985231  0.049866903   0.10606498 
  243000   -1794873.4    13669.737   -978.76726    77.130717    89.063572    81.378838    1811.9678   0.11557133   0.11905647   0.15462494   0.38925274  0.027670433   0.02788733  0.050574435    0.1061322 
  244000   -1794918.4    13525.328   -1618.0328    77.130717    89.063572    81.378838    1792.8259   0.11652585   0.12005087   0.15473876   0.39131548  0.028190184  0.028832979  0.051092514   0.10811568 
  245000   -1795013.1    13582.143   -1430.6729    77.130717    89.063572    81.378838    1800.3569   0.11740604   0.11930753   0.15586898   0.39258254  0.027805894  0.027441998  0.050770181   0.10601807 
  246000   -1794887.8    13600.074   -1222.8312    77.130717    89.063572    81.378838    1802.7337   0.11858366    0.1196075   0.15367956   0.39187072   0.02813656  0.028212627  0.050361769   0.10671096 
  247000   -1794925.9    13676.652   -795.80659    77.130717    89.063572    81.378838    1812.8844   0.11782673   0.12089336   0.15563783   0.39435792  0.027884626  0.028026281  0.051022816   0.10693372 
  248000   -1794900.9    13562.169   -1074.8732    77.130717    89.063572    81.378838    1797.7093   0.11818253   0.12092725   0.15606931    0.3951791  0.028150085  0.028799375  0.051235778   0.10818524 
  249000   -1794834.5    13585.437    -766.9657    77.130717    89.063572    81.378838    1800.7936   0.11826437   0.12094607   0.15469651   0.39390695  0.027702056  0.027764795  0.051476886   0.10694374 
  250000     -1794920    13591.872   -586.43573    77.130717    89.063572    81.378838    1801.6466   0.11892422   0.12223091    0.1565348   0.39768993  0.027722641  0.028522666   0.05131827   0.10756358 
  251000   -1794948.9    13598.408   -1227.9601    77.130717    89.063572    81.378838    1802.5129   0.12006881   0.12050425   0.15537144    0.3959445  0.028165226  0.028733099  0.050753786   0.10765211 
  252000   -1794911.1    13591.433   -1240.1031    77.130717    89.063572    81.378838    1801.5883   0.11939679   0.12025189   0.15607408   0.39572276  0.028660231  0.028155562  0.051568025   0.10838382 
  253000   -1794949.4    13587.511   -1896.9715    77.130717    89.063572    81.378838    1801.0684   0.11946189   0.12157784   0.15834248    0.3993822  0.027591873  0.028260556  0.052485778   0.10833821 
  254000   -1794896.8    13586.772    -1421.454    77.130717    89.063572    81.378838    1800.9705   0.12028707   0.12235265   0.15855785   0.40119757  0.027762554    0.0285885  0.051129738   0.10748079 
  255000   -1794851.5    13527.126   -988.74229    77.130717    89.063572    81.378838    1793.0643    0.1210347   0.12139126   0.15709294    0.3995189   0.02776948  0.028033794   0.05129279   0.10709606 
  256000   -1794872.6    13540.835   -1343.7267    77.130717    89.063572    81.378838    1794.8814   0.11983568   0.12293652   0.15770062   0.40047283  0.027194773  0.028691345  0.051880891   0.10776701 
  257000     -1794906    13576.969   -1323.8887    77.130717    89.063572    81.378838    1799.6711   0.12020511   0.12083238   0.15760767   0.39864516  0.026752879  0.028081321  0.050663185   0.10549739 
  258000   -1794826.5     13573.95   -852.95708    77.130717    89.063572    81.378838    1799.2709   0.12014141   0.12207003    0.1596708   0.40188223  0.028048356  0.028309572  0.053449051   0.10980698 
  259000   -1794837.2    13559.721   -945.60042    77.130717    89.063572    81.378838    1797.3848   0.12203044   0.12246072   0.15863572   0.40312688  0.028473039  0.028270693  0.052241091   0.10898482 
  260000     -1794892    13583.538    -1458.929    77.130717    89.063572    81.378838    1800.5418   0.12176637   0.12199739   0.15771811   0.40148188  0.028336377  0.028130686  0.053095448   0.10956251 
  261000   -1794956.2    13644.338   -1548.6485    77.130717    89.063572    81.378838     1808.601   0.12126638   0.12252469   0.15849613    0.4022872  0.027739899  0.028745947  0.053163317   0.10964916 
  262000   -1794875.5    13616.989   -981.36323    77.130717    89.063572    81.378838    1804.9758   0.12163643   0.12221703   0.15922482   0.40307827  0.027404026  0.027345251  0.052132369   0.10688165 
  263000   -1794925.3    13528.893   -1371.9391    77.130717    89.063572    81.378838    1793.2984   0.12198466   0.12370076   0.16120117   0.40688658  0.027404122  0.027622106  0.054310397   0.10933662 
  264000   -1794911.9    13507.353   -1762.3353    77.130717    89.063572    81.378838    1790.4433   0.12241095   0.12406248   0.16049027    0.4069637  0.027778961  0.028666746  0.052088738   0.10853445 
  265000   -1794914.1    13535.023   -1500.9333    77.130717    89.063572    81.378838    1794.1109   0.12177159   0.12351445   0.16201859   0.40730464  0.028125264  0.028423345  0.053114521   0.10966313 
  266000   -1794860.4    13520.083   -1149.7791    77.130717    89.063572    81.378838    1792.1306   0.12438823   0.12507879   0.16150063   0.41096765   0.02797948  0.028444716  0.051027998   0.10745219 
  267000   -1794950.7    13611.612   -1405.0024    77.130717    89.063572    81.378838    1804.2631    0.1244529   0.12463468   0.16323048   0.41231806  0.028077083  0.028490001  0.053213743   0.10978083 
  268000   -1794914.9    13652.259   -1592.7019    77.130717    89.063572    81.378838     1809.651   0.12353538   0.12288158    0.1607229   0.40713985  0.028341342  0.027836632   0.05022966   0.10640763 
  269000   -1794932.7    13578.716   -2118.1838    77.130717    89.063572    81.378838    1799.9027   0.12426922   0.12531006   0.16308958   0.41266885  0.027684537  0.028969481  0.053713752   0.11036777 
  270000   -1794867.9    13549.962   -917.53898    77.130717    89.063572    81.378838    1796.0913   0.12318107   0.12426697   0.16275141   0.41019945  0.027385375  0.028148244  0.052464867   0.10799849 
  271000   -1794981.2    13648.756   -2103.0453    77.130717    89.063572    81.378838    1809.1867     0.123878   0.12546989   0.16208441   0.41143231  0.027457918  0.028303981  0.053214049   0.10897595 
  272000   -1794913.7    13481.932   -1762.0578    77.130717    89.063572    81.378838    1787.0736   0.12458205   0.12392659    0.1621391   0.41064775  0.028521944   0.02794916  0.052663124   0.10913423 
  273000   -1794850.1    13592.851   -524.01541    77.130717    89.063572    81.378838    1801.7763   0.12497101   0.12468751   0.16431823   0.41397675  0.028255226  0.028374069  0.053611865   0.11024116 
  274000   -1794876.2    13602.591   -1271.9347    77.130717    89.063572    81.378838    1803.0674    0.1239352   0.12578121   0.16533923   0.41505564  0.026875836  0.029385553  0.054826986   0.11108838 
  275000   -1794910.5    13582.795   -1555.3103    77.130717    89.063572    81.378838    1800.4433   0.12437019   0.12662065   0.16424323   0.41523407  0.027503273  0.028471549   0.05477416   0.11074898 
  276000   -1794886.5    13544.773   -955.12936    77.130717    89.063572    81.378838    1795.4035   0.12550168   0.12575914   0.16639543   0.41765624  0.028281322  0.028426047  0.055451963   0.11215933 
  277000   -1794863.3    13618.025   -1089.3157    77.130717    89.063572    81.378838    1805.1132   0.12451727   0.12524893   0.16482342   0.41458962  0.028049281  0.028397661  0.053233466   0.10968041 
  278000   -1794931.3    13599.028    -1040.631    77.130717    89.063572    81.378838    1802.5951   0.12577127   0.12628242   0.16499841    0.4170521  0.028155269  0.028035481   0.05247886   0.10866961 
  279000   -1794941.2    13528.954    -1078.303    77.130717    89.063572    81.378838    1793.3065   0.12497675   0.12754581   0.16628084    0.4188034   0.02768971  0.028620057  0.054003715   0.11031348 
  280000   -1794906.4     13618.61    -1118.977    77.130717    89.063572    81.378838    1805.1908   0.12535324   0.12590704   0.16666518   0.41792546  0.027756007  0.028080255  0.053735365   0.10957163 
  281000   -1794971.7    13519.744   -1882.6157    77.130717    89.063572    81.378838    1792.0858   0.12509826   0.12662614   0.16862239   0.42034679  0.027795333   0.02832416  0.053059868   0.10917936 
  282000   -1794941.2    13649.119   -979.06823    77.130717    89.063572    81.378838    1809.2348    0.1253403   0.12592285   0.16731439   0.41857753  0.027976416  0.027791698  0.052823185    0.1085913 
  283000   -1794877.6    13610.942   -1103.4104    77.130717    89.063572    81.378838    1804.1744   0.12637941   0.12694624   0.16758308   0.42090873  0.027996292   0.02778614  0.053395124   0.10917756 
  284000   -1794915.3    13672.449   -1075.7184    77.130717    89.063572    81.378838    1812.3272   0.12628694   0.12757153   0.16694964   0.42080812  0.027708557   0.02757297  0.052625569    0.1079071 
  285000   -1794923.3    13559.425   -1446.7545    77.130717    89.063572    81.378838    1797.3456   0.12726144   0.12915826   0.16698438   0.42340408  0.027645836  0.028651585   0.05258687   0.10888429 
  286000   -1794881.8    13543.751   -1177.3397    77.130717    89.063572    81.378838    1795.2679   0.12645945   0.12887739   0.16944433   0.42478118  0.027365645  0.027680649    0.0531658   0.10821209 
  287000   -1794816.1    13612.215   -929.31019    77.130717    89.063572    81.378838    1804.3431   0.12712949   0.12949535   0.17101661   0.42764145  0.028253889  0.028465481  0.054531268   0.11125064 
  288000   -1794911.1    13546.987   -920.13525    77.130717    89.063572    81.378838    1795.6968   0.12623239   0.12859999   0.16904189   0.42387427   0.02797136  0.028130358  0.053926355   0.11002807 
  289000   -1794883.5    13520.512   -1027.2542    77.130717    89.063572    81.378838    1792.1876    0.1260264   0.13024892   0.16843753   0.42471285  0.026885237  0.028752877  0.052302024   0.10794014 
  290000   -1794905.3    13595.031   -1830.8605    77.130717    89.063572    81.378838    1802.0652   0.12710564   0.12953076   0.17025996   0.42689636  0.028697305  0.028023078  0.054838979   0.11155936 
  291000   -1794874.7    13721.927      -934.33    77.130717    89.063572    81.378838    1818.8858   0.12720505   0.12974509   0.16878395    0.4257341  0.028277656  0.028712198  0.053396794   0.11038665 
  292000   -1794908.6    13544.488   -1731.3058    77.130717    89.063572    81.378838    1795.3656   0.12740565   0.12971472   0.16946357   0.42658394  0.027212701  0.027589529  0.054846272    0.1096485 
  293000   -1794942.6    13601.055   -810.43886    77.130717    89.063572    81.378838    1802.8638   0.12831775   0.12980298    0.1692857   0.42740643  0.027690974  0.028293986  0.053959969   0.10994493 
  294000   -1794960.2    13481.292   -1613.1934    77.130717    89.063572    81.378838    1786.9888   0.12777819   0.13097328    0.1690738   0.42782526  0.027657704  0.028967986   0.05401207   0.11063776 
  295000   -1794920.1    13645.602   -1331.3021    77.130717    89.063572    81.378838    1808.7687   0.12918621   0.13096047   0.16840825   0.42855493  0.028371557  0.029085683  0.053310667   0.11076791 
  296000   -1794887.1    13651.686   -1307.4471    77.130717    89.063572    81.378838    1809.5751    0.1288192   0.13220365   0.16977413   0.43079697   0.02759747   0.02861144  0.054222737   0.11043165 
  297000   -1794972.9    13582.795   -1905.5876    77.130717    89.063572    81.378838    1800.4434    0.1278821   0.13182221   0.16877168   0.42847599  0.026769802  0.028232554  0.052610841    0.1076132 
  298000   -1794935.2    13604.088   -1446.3233    77.130717    89.063572    81.378838    1803.2658    0.1296102    0.1320998   0.17123747   0.43294748  0.028118594  0.028301602  0.053947786   0.11036798 
  299000   -1794847.7    13540.203   -1409.6996    77.130717    89.063572    81.378838    1794.7977   0.12798996    0.1315683   0.17136427   0.43092253  0.027114061  0.027778079  0.052833438   0.10772558 
  300000   -1794893.3    13478.738   -1509.5921    77.130717    89.063572    81.378838    1786.6502   0.12868232   0.13300758   0.17147513   0.43316503  0.027403513  0.027338771   0.05337133   0.10811361 
  301000   -1794812.9    13615.027   -842.97435    77.130717    89.063572    81.378838    1804.7159   0.12769567   0.13393297   0.17268251   0.43431115  0.027057615  0.028796349  0.053509815   0.10936378 
  302000   -1794914.1    13570.648   -1544.0169    77.130717    89.063572    81.378838    1798.8332    0.1289004   0.13117721   0.17214689   0.43222451  0.027869587  0.027607561  0.054052769   0.10952992 
  303000   -1794909.4    13561.174   -998.43753    77.130717    89.063572    81.378838    1797.5774   0.12901634   0.13312721    0.1724707   0.43461424  0.027886293  0.028512672  0.052212317   0.10861128 
  304000   -1794864.5    13616.033   -1002.7555    77.130717    89.063572    81.378838    1804.8492    0.1292481   0.13411085   0.17403485    0.4373938  0.027113497  0.028480312  0.053812997   0.10940681 
  305000   -1794927.5    13556.107   -1457.3983    77.130717    89.063572    81.378838    1796.9058    0.1299725    0.1337881   0.17472599   0.43848659  0.027437144  0.027652184  0.055204604   0.11029393 
  306000   -1794955.1    13539.492   -1173.3317    77.130717    89.063572    81.378838    1794.7033   0.12979918   0.13424588   0.17215262   0.43619768  0.027745566  0.028493154  0.052757817   0.10899654 
  307000   -1794894.9    13549.195   -1083.6333    77.130717    89.063572    81.378838    1795.9895   0.13060273   0.13375619   0.17406183   0.43842075  0.028347347  0.028208327  0.055673156   0.11222883 
  308000   -1794890.8    13570.271   -1376.1276    77.130717    89.063572    81.378838    1798.7832   0.13049383   0.13434891   0.17453162   0.43937436  0.028051846  0.027445766  0.054160208   0.10965782 
  309000   -1795000.3    13588.767   -2112.3438    77.130717    89.063572    81.378838    1801.2349   0.13048464   0.13374593   0.17358212    0.4378127  0.028479775   0.02738747  0.055101432   0.11096868 
  310000   -1794941.6    13679.706   -1175.0762    77.130717    89.063572    81.378838    1813.2891   0.13059314   0.13545361    0.1741729   0.44021965  0.028076864  0.028546885  0.054957824   0.11158157 
  311000   -1794838.4    13598.112     -694.745    77.130717    89.063572    81.378838    1802.4737   0.13095979   0.13519509   0.17357635   0.43973123  0.027837194  0.028255782  0.053443572   0.10953655 
  312000   -1794930.1    13511.748   -1531.8938    77.130717    89.063572    81.378838    1791.0258   0.13019932   0.13552801    0.1737269   0.43945424  0.028389286  0.027551058  0.051632422   0.10757277 
  313000   -1794952.9    13666.796   -1501.1069    77.130717    89.063572    81.378838    1811.5779   0.13128924   0.13635514   0.17708422    0.4447286  0.027989814  0.027694401  0.052038925   0.10772314 
  314000   -1794863.7    13471.621   -1585.8126    77.130717    89.063572    81.378838    1785.7069   0.13018834    0.1354697   0.17441434   0.44007238  0.027907815  0.028223758  0.052247477   0.10837905 
  315000   -1794904.3    13588.758   -1006.9475    77.130717    89.063572    81.378838    1801.2337   0.13218059    0.1365728   0.17516198   0.44391538    0.0285468  0.028723048  0.053982945   0.11125279 
  316000   -1794845.3    13528.079   -944.03993    77.130717    89.063572    81.378838    1793.1905   0.13074431   0.13583068   0.17327357   0.43984855    0.0279409  0.028447609  0.052370053   0.10875856 
  317000   -1794912.9    13616.998   -852.42916    77.130717    89.063572    81.378838    1804.9771   0.13130288    0.1373242   0.17428545   0.44291252  0.027573989  0.029502659  0.051682074   0.10875872 
  318000   -1794914.5    13631.826   -1173.8132    77.130717    89.063572    81.378838    1806.9426   0.13184853    0.1361741   0.17356772   0.44159035  0.027773911  0.027675677  0.053398478   0.10884807 
  319000   -1794969.4    13524.555    -1717.605    77.130717    89.063572    81.378838    1792.7235   0.13206692   0.13716922   0.17506231   0.44429845  0.027328792  0.027868615  0.052736956   0.10793436 
  320000   -1794883.7    13618.527   -1518.6644    77.130717    89.063572    81.378838    1805.1798   0.13173618   0.13724415   0.17483483   0.44381516  0.026734951  0.028396356  0.055149356   0.11028066 
  321000   -1794936.4    13665.419   -428.11827    77.130717    89.063572    81.378838    1811.3954   0.13243246   0.13624667   0.17444866    0.4431278  0.028290585  0.028125087  0.054544472   0.11096014 
  322000   -1794880.1    13615.731   -1279.3446    77.130717    89.063572    81.378838    1804.8091   0.13258347   0.13728641   0.17463516   0.44450503  0.028041652  0.028563677  0.054193477   0.11079881 
  323000   -1794911.8    13633.556   -1025.6028    77.130717    89.063572    81.378838    1807.1719   0.13382798   0.13662038   0.17523264   0.44568101  0.026901714  0.028385488  0.054079606   0.10936681 
  324000   -1794809.9    13539.218   -1087.0487    77.130717    89.063572    81.378838    1794.6671    0.1338477    0.1384128   0.17577774   0.44803824  0.027166657  0.028850212  0.054883424   0.11090029 
  325000   -1794978.2    13457.845    -1659.896    77.130717    89.063572    81.378838    1783.8808   0.13394353   0.13604027   0.17539208   0.44537587  0.027129617  0.027262697  0.053665619   0.10805793 
  326000   -1794915.8    13638.442   -1207.5882    77.130717    89.063572    81.378838    1807.8195   0.13505566   0.13884624   0.17640066   0.45030257  0.027796766  0.027782953  0.054348337   0.10992806 
  327000   -1794928.5    13590.452   -1265.1363    77.130717    89.063572    81.378838    1801.4583   0.13479549   0.13914072   0.17757759    0.4515138  0.027114259  0.028982698  0.055271159   0.11136812 
  328000   -1794919.1    13705.276   -1239.8224    77.130717    89.063572    81.378838    1816.6786   0.13474461   0.13778581   0.17813301   0.45066342   0.02735736  0.027647021  0.055395208   0.11039959 
  329000     -1794941    13569.055   -1915.4025    77.130717    89.063572    81.378838    1798.6221   0.13557539   0.13802225   0.17783904   0.45143668  0.027619792  0.028325351  0.054771825   0.11071697 
  330000   -1794883.9    13623.636   -1160.8681    77.130717    89.063572    81.378838     1805.857   0.13576294   0.13920413   0.17809066   0.45305773  0.027729859  0.028317098   0.05452034    0.1105673 
  331000   -1794842.6     13650.17   -559.71696    77.130717    89.063572    81.378838    1809.3741   0.13579959   0.13822098   0.17790901   0.45192959  0.028783183  0.027994834  0.054715421   0.11149344 
  332000   -1794880.4     13614.95    -867.7382    77.130717    89.063572    81.378838    1804.7056   0.13608713    0.1397114   0.17905173   0.45485027  0.027886645  0.027550523  0.055112549   0.11054972 
  333000   -1794871.6    13611.514   -955.11677    77.130717    89.063572    81.378838    1804.2501   0.13528307   0.13970518    0.1806235   0.45561175  0.027742818  0.028846344  0.057118293   0.11370745 
  334000     -1794932    13631.879   -830.37708    77.130717    89.063572    81.378838    1806.9495   0.13536062   0.14070668   0.18139385   0.45746114  0.028157306  0.028468287  0.056854332   0.11347992 
  335000   -1794813.7    13564.409   -1131.6454    77.130717    89.063572    81.378838    1798.0062    0.1370621   0.14007722    0.1825547   0.45969402  0.026977241  0.028302088  0.057140344   0.11241967 
  336000   -1794959.5    13575.683   -1469.6648    77.130717    89.063572    81.378838    1799.5006   0.13656146   0.14066071   0.18333719   0.46055937  0.027277136  0.027689746   0.05525316   0.11022004 
  337000   -1794923.5    13645.892   -921.34665    77.130717    89.063572    81.378838     1808.807   0.13625228   0.14239263   0.18240758    0.4610525  0.027708604   0.02827047  0.053588382   0.10956746 
  338000   -1794857.8    13528.252   -990.42983    77.130717    89.063572    81.378838    1793.2135   0.13612695   0.14312665   0.18360416   0.46285776  0.027866907  0.028182527  0.055856328   0.11190576 
  339000   -1794988.5    13485.271   -1729.0164    77.130717    89.063572    81.378838    1787.5162    0.1383303   0.14194253     0.184422   0.46469483  0.027802785  0.027676458   0.05656565   0.11204489 
  340000   -1794949.6    13620.648   -1590.2442    77.130717    89.063572    81.378838    1805.4608   0.13810725   0.14255643   0.18453082   0.46519449  0.028113242  0.027167208  0.056570894   0.11185134 
  341000   -1794829.7    13543.617   -1374.1545    77.130717    89.063572    81.378838    1795.2502   0.13836022   0.14192414   0.18411291   0.46439726  0.027827657  0.027723312  0.055029171   0.11058014 
  342000   -1794846.8    13499.556   -1010.4873    77.130717    89.063572    81.378838    1789.4098   0.13732735   0.14405062   0.18728495   0.46866291  0.027307261  0.028322369  0.057426573    0.1130562 
  343000   -1794836.3    13595.641    -305.0901    77.130717    89.063572    81.378838    1802.1461   0.13875925   0.14372642   0.18797475   0.47046043   0.02730791  0.027877726  0.057675724   0.11286136 
  344000   -1794885.6    13578.246   -1207.0931    77.130717    89.063572    81.378838    1799.8403   0.14092358    0.1438679   0.18660424   0.47139572  0.028896859  0.027537102  0.057805833   0.11423979 
  345000   -1794951.5    13662.054    -1121.738    77.130717    89.063572    81.378838    1810.9493   0.13819013   0.14584926   0.18645798   0.47049736  0.027329345   0.02829269  0.057206479   0.11282851 
  346000   -1794890.7    13537.258   -1509.4021    77.130717    89.063572    81.378838    1794.4073   0.13902353   0.14517439   0.18444079   0.46863871  0.027650724  0.028048324  0.055236066   0.11093511 
  347000   -1794901.3    13575.485   -1128.9097    77.130717    89.063572    81.378838    1799.4744   0.13992371   0.14503455   0.18684481   0.47180308  0.028254409  0.027911137  0.055773711   0.11193926 
  348000   -1794861.6    13562.705   -791.33262    77.130717    89.063572    81.378838    1797.7804   0.14028069   0.14387691   0.18539534   0.46955294  0.027773091  0.027687309  0.056856946   0.11231735 
  349000   -1794882.9    13547.856   -1481.1816    77.130717    89.063572    81.378838    1795.8121   0.14095179    0.1445313   0.18754193   0.47302502  0.027981231  0.027400653  0.056722091   0.11210398 
  350000     -1794929    13601.817    -1594.831    77.130717    89.063572    81.378838    1802.9648   0.14113887    0.1452336   0.18652375   0.47289622  0.027352414  0.027254144  0.054590039    0.1091966 
  351000   -1794870.9    13534.274   -1128.0509    77.130717    89.063572    81.378838    1794.0118   0.14082003   0.14402598   0.18696773   0.47181374  0.027210757  0.028026548   0.05642346   0.11166076 
  352000   -1794888.2    13564.743   -1053.8498    77.130717    89.063572    81.378838    1798.0505    0.1393591   0.14461973   0.18739286   0.47137169  0.027823099   0.02821169  0.056231538   0.11226633 
  353000   -1794891.9    13538.252    -1371.259    77.130717    89.063572    81.378838     1794.539   0.14163186    0.1452611   0.18759184   0.47448481  0.027980524  0.027413601  0.056250903   0.11164503 
  354000     -1794945     13491.73   -1546.7009    77.130717    89.063572    81.378838    1788.3724   0.14068353   0.14626712   0.19064442   0.47759507  0.027855311  0.028142351  0.056743186   0.11274085 
  355000   -1794876.1    13561.775   -954.92692    77.130717    89.063572    81.378838    1797.6571    0.1419025    0.1464435   0.18839965   0.47674565  0.028332655   0.02780226  0.054588678   0.11072359 
  356000   -1794899.2    13612.985   -1198.6941    77.130717    89.063572    81.378838    1804.4451   0.14149606   0.14524861   0.18962808   0.47637275  0.027782196  0.027870245  0.056258279   0.11191072 
  357000   -1794915.5    13579.401   -730.44442    77.130717    89.063572    81.378838    1799.9935   0.14119269   0.14599801    0.1878261    0.4750168  0.027598857  0.028586043  0.055095993   0.11128089 
  358000   -1794866.7    13601.425   -578.81577    77.130717    89.063572    81.378838    1802.9128   0.14157135   0.14601753    0.1900652   0.47765408  0.027778262  0.028165292  0.057057867   0.11300142 
  359000     -1794906    13558.922   -1579.2348    77.130717    89.063572    81.378838    1797.2789   0.14308524   0.14669302   0.19027044    0.4800487  0.027854261  0.027793926  0.055186456   0.11083464 
  360000   -1794883.2    13638.285   -460.09467    77.130717    89.063572    81.378838    1807.7987   0.14180899   0.14542261   0.18893849    0.4761701  0.027844235  0.027315065   0.05551961   0.11067891 
  361000     -1794936    13607.249   -1822.7211    77.130717    89.063572    81.378838    1803.6847   0.14285327   0.14604867   0.18925981   0.47816174  0.027959052  0.027700355  0.055605085   0.11126449 
  362000   -1794876.4    13680.573   -1071.3962    77.130717    89.063572    81.378838    1813.4042   0.14356331   0.14754278   0.18986615   0.48097225  0.028012864  0.028053197  0.052692166   0.10875823 
  363000   -1794844.9     13516.28   -1065.7265    77.130717    89.063572    81.378838    1791.6266   0.14357814   0.14623942   0.18955837   0.47937593  0.027871414  0.027408433  0.056704922   0.11198477 
  364000     -1794942    13552.778    -1360.649    77.130717    89.063572    81.378838    1796.4645    0.1424113   0.14657255   0.19010551   0.47908936  0.027287831  0.028376646  0.056312303   0.11197678 
  365000   -1794976.6     13565.69   -1507.2567    77.130717    89.063572    81.378838     1798.176   0.14445074   0.14759642   0.19111101   0.48315817  0.028086687  0.027643065  0.054743744    0.1104735 
  366000   -1794869.4    13636.088    -882.5791    77.130717    89.063572    81.378838    1807.5075    0.1434368   0.14820987   0.19163136   0.48327803  0.028231344  0.027940159  0.056362736   0.11253424 
  367000     -1794867    13625.478   -776.93283    77.130717    89.063572    81.378838    1806.1011   0.14387267   0.14856559   0.19292264    0.4853609  0.027223471  0.028284012   0.05509471   0.11060219 
  368000   -1794870.5    13521.585    -1042.575    77.130717    89.063572    81.378838    1792.3298   0.14411029   0.14732336   0.19203327   0.48346692   0.02769772  0.027793299  0.054640403   0.11013142 
  369000   -1794882.1    13590.483   -1304.0026    77.130717    89.063572    81.378838    1801.4625   0.14366335   0.14811556   0.19278362   0.48456254  0.027121272  0.028596783   0.05588709   0.11160515 
  370000   -1794899.6    13530.125   -1568.0638    77.130717    89.063572    81.378838    1793.4618   0.14466896    0.1476804   0.19117863   0.48352799  0.026828185  0.027192859  0.055574474   0.10959552 
  371000     -1794883    13575.875   -1550.8709    77.130717    89.063572    81.378838     1799.526   0.14581579   0.14925081   0.19376737   0.48883398  0.028651357  0.028919353  0.056865096   0.11443581 
  372000   -1794882.8    13565.794   -1169.3288    77.130717    89.063572    81.378838    1798.1898   0.14556935   0.14887342   0.19233398   0.48677674  0.028061222  0.028634949  0.055301729    0.1119979 
  373000   -1794896.9    13531.242   -1164.3325    77.130717    89.063572    81.378838    1793.6098   0.14484701   0.14958863   0.19234404   0.48677968  0.027350926  0.027898607  0.055631481   0.11088101 
  374000   -1794861.4    13548.927   -1381.7958    77.130717    89.063572    81.378838     1795.954   0.14677988   0.14922908   0.19360664    0.4896156  0.028351242  0.028095621  0.057419902   0.11386676 
  375000   -1794919.6    13646.604   -1125.6271    77.130717    89.063572    81.378838    1808.9014   0.14741146   0.14982646   0.19471661   0.49195453  0.027566256  0.028244407  0.055996886   0.11180755 
  376000   -1794852.5    13579.102   -823.05103    77.130717    89.063572    81.378838    1799.9539   0.14810608   0.14972843   0.19601061   0.49384512  0.027779836  0.028305198   0.05713738   0.11322241 
  377000   -1794914.8    13593.024   -1287.7596    77.130717    89.063572    81.378838    1801.7992   0.14624895   0.14978993   0.19596991    0.4920088  0.026896959  0.027753317   0.05598722    0.1106375 
  378000   -1794902.4    13639.038   -1271.5502    77.130717    89.063572    81.378838    1807.8985   0.14791158   0.15000826   0.19571116     0.493631  0.027188063    0.0275063   0.05605646   0.11075082 
  379000   -1794915.2    13561.686   -1096.6419    77.130717    89.063572    81.378838    1797.6452   0.14842975   0.14968327   0.19352851   0.49164153  0.027725942  0.027971155  0.055453576   0.11115067 
  380000   -1794877.5    13596.716   -850.56114    77.130717    89.063572    81.378838    1802.2886   0.14946385   0.15040778   0.19415916    0.4940308  0.028157788  0.027861746  0.056480113   0.11249965 
  381000   -1794883.7    13524.871   -712.87696    77.130717    89.063572    81.378838    1792.7653   0.14986172   0.15076454   0.19788839   0.49851466  0.028095145  0.028562677  0.056296836   0.11295466 
  382000   -1794879.6    13664.613   -972.33363    77.130717    89.063572    81.378838    1811.2885   0.14829275   0.14993262    0.1951388   0.49336417  0.027636223  0.027895859  0.056940326   0.11247241 
  383000   -1794937.1    13594.834   -1650.5425    77.130717    89.063572    81.378838    1802.0392    0.1490469   0.14995901   0.19523028   0.49423619   0.02842351  0.027646826   0.05543674   0.11150708 
  384000   -1794905.7    13605.224   -1231.6601    77.130717    89.063572    81.378838    1803.4163   0.14863191   0.15120591   0.19608493   0.49592275  0.027331897  0.028489257  0.055621439   0.11144259 
  385000   -1794852.3    13538.624   -1369.7042    77.130717    89.063572    81.378838    1794.5884   0.14860485    0.1505088   0.19739654   0.49651019  0.028315337  0.027560676   0.05626108   0.11213709 
  386000   -1794819.9    13649.961   -757.28899    77.130717    89.063572    81.378838    1809.3464    0.1495928   0.15250588   0.19536027   0.49745895  0.028752415  0.028306128  0.053380206   0.11043875 
  387000   -1794968.7    13544.605   -1832.9442    77.130717    89.063572    81.378838    1795.3811   0.14912263   0.15200637   0.19585602   0.49698502  0.026834555  0.027974075  0.053737562   0.10854619 
  388000   -1794949.9    13665.217   -1297.9526    77.130717    89.063572    81.378838    1811.3687   0.14975274   0.15233221   0.19558023   0.49766518   0.02709716   0.02802869   0.05562407   0.11074992 
  389000   -1794918.7    13640.663   -1005.2283    77.130717    89.063572    81.378838    1808.1139   0.14908822   0.15347042   0.19727471   0.49983335  0.027904592  0.027549318  0.056412163   0.11186607 
  390000   -1794904.9    13493.533   -1151.4022    77.130717    89.063572    81.378838    1788.6114   0.15080138   0.15388446    0.1989281   0.50361394  0.028703859  0.027981153  0.056539142   0.11322415 
  391000   -1794832.3    13762.276    -241.7802    77.130717    89.063572    81.378838    1824.2341   0.14944061   0.15453007    0.2018887   0.50585937  0.027643021  0.028078778  0.057413729   0.11313553 
  392000   -1794878.2    13651.466   -925.36005    77.130717    89.063572    81.378838    1809.5458   0.14834384    0.1553418   0.20019608   0.50388172  0.026804696  0.028576545  0.055877143   0.11125838 
  393000   -1794951.4    13478.058   -1814.4571    77.130717    89.063572    81.378838    1786.5601   0.14929386   0.15349141   0.19661406   0.49939933   0.02787249  0.028118521  0.054609389    0.1106004 
  394000   -1794885.7    13569.608   -1731.1962    77.130717    89.063572    81.378838    1798.6953   0.14909974   0.15445069   0.19923123   0.50278166  0.027556393  0.028180353  0.054536517   0.11027326 
  395000   -1794874.9    13445.493   -1315.7581    77.130717    89.063572    81.378838    1782.2435    0.1500989   0.15526131   0.19897994   0.50434015  0.028146357  0.028760734  0.053251144   0.11015824 
  396000     -1794932    13554.393   -1075.9074    77.130717    89.063572    81.378838    1796.6786   0.15094723    0.1530801   0.19934309   0.50337042  0.027854682  0.027887401  0.053799241   0.10954132 
  397000   -1794944.7    13542.337   -2104.6166    77.130717    89.063572    81.378838    1795.0805   0.14937954   0.15393729   0.19743704   0.50075387  0.028307347  0.028333405   0.05347322   0.11011397 
  398000     -1794936    13535.925   -1765.4605    77.130717    89.063572    81.378838    1794.2306   0.15071453      0.15434   0.19752356   0.50257808   0.02857138   0.02741431  0.053558724   0.10954441 
  399000   -1794951.2    13571.775   -1435.2498    77.130717    89.063572    81.378838    1798.9826   0.15163643   0.15482097   0.19762199   0.50407939  0.027892264  0.027706502  0.054461494   0.11006026 
  400000   -1794947.3     13696.23   -1040.3787    77.130717    89.063572    81.378838    1815.4795   0.15119599   0.15516025   0.19875388   0.50511012  0.028239982  0.028895479  0.053977229   0.11111269 
  401000   -1794918.1     13572.13   -2062.6353    77.130717    89.063572    81.378838    1799.0297   0.15195163   0.15527904   0.19933373    0.5065644  0.027993857  0.028270076  0.054075601   0.11033953 
  402000   -1794915.7    13450.373   -1827.9989    77.130717    89.063572    81.378838    1782.8904   0.15121689   0.15586873   0.20012455   0.50721017  0.027855363  0.028770051  0.053162462   0.10978788 
  403000   -1794817.9    13528.715   -979.02685    77.130717    89.063572    81.378838    1793.2749   0.15145254   0.15517063   0.20044968   0.50707284  0.027803957  0.027598485  0.053605898   0.10900834 
  404000   -1794927.7    13542.954   -1415.0326    77.130717    89.063572    81.378838    1795.1622   0.15237868   0.15669156   0.20092271   0.50999296   0.02826245  0.028213502  0.053879714   0.11035567 
  405000   -1794904.8    13523.116   -1307.7062    77.130717    89.063572    81.378838    1792.5326   0.15151244   0.15750841   0.20116389   0.51018473  0.027553361  0.028810766  0.052230797   0.10859492 
  406000   -1794912.1    13569.003   -1280.1175    77.130717    89.063572    81.378838    1798.6151   0.15145777   0.15494117   0.20117151   0.50757045  0.027352202  0.028171681   0.05275112     0.108275 
  407000     -1794919    13645.332   -1062.7493    77.130717    89.063572    81.378838    1808.7328   0.15177681    0.1557285   0.20157944   0.50908475  0.027519016  0.028573932  0.052518505   0.10861145 
  408000   -1794836.6    13644.303   -183.74982    77.130717    89.063572    81.378838    1808.5964   0.15441138    0.1567258    0.2011016   0.51223878  0.028878955  0.028563866   0.05355479   0.11099761 
  409000   -1794876.6    13517.251   -1452.2738    77.130717    89.063572    81.378838    1791.7553   0.15213555   0.15778101   0.20421125   0.51412782  0.027871212    0.0280296  0.056782069   0.11268288 
  410000   -1794876.9    13580.996   -1805.6707    77.130717    89.063572    81.378838    1800.2049   0.15323171   0.15703566   0.20313693    0.5134043  0.027639338  0.028500308  0.054658266   0.11079791 
  411000     -1794921    13583.491   -1117.9468    77.130717    89.063572    81.378838    1800.5356   0.15336976   0.15763878   0.20277748   0.51378603  0.028136192  0.028083213  0.054577457   0.11079686 
  412000     -1794954    13598.385   -1366.2235    77.130717    89.063572    81.378838    1802.5099   0.15380066   0.15741033   0.20264119   0.51385218  0.027995569  0.028246186  0.056104374   0.11234613 
  413000   -1794914.4    13475.469   -1497.1882    77.130717    89.063572    81.378838     1786.217   0.15515216   0.15800677   0.20330723   0.51646616  0.028593273  0.027724536  0.054949564   0.11126737 
  414000   -1794843.5    13558.138   -561.69907    77.130717    89.063572    81.378838     1797.175   0.15472978   0.15929789   0.20577918   0.51980686  0.027999236   0.02933219  0.055589587   0.11292101 
  415000   -1794932.1    13554.975   -1703.5437    77.130717    89.063572    81.378838    1796.7558   0.15631186   0.15896005   0.20370111   0.51897301  0.027723244  0.028089425  0.054434659   0.11024733 
  416000   -1794894.6    13509.269   -1401.6736    77.130717    89.063572    81.378838    1790.6973   0.15543729    0.1573473   0.20406894   0.51685353   0.02791939  0.027306623   0.05432874   0.10955475 
  417000   -1794852.9    13581.577    -1082.834    77.130717    89.063572    81.378838    1800.2818   0.15629914   0.15699519   0.20486849   0.51816282  0.028397475  0.028012582  0.055051731   0.11146179 
  418000     -1794932    13586.716   -932.02701    77.130717    89.063572    81.378838    1800.9631   0.15609998   0.15859695   0.20393179   0.51862873  0.027885439   0.02803433  0.055019245   0.11093901 
  419000   -1794934.9    13600.464   -1029.3875    77.130717    89.063572    81.378838    1802.7854    0.1558429    0.1574732   0.20538349   0.51869958  0.027966754  0.028193318  0.055704595   0.11186467 
  420000   -1794940.6    13649.369   -1215.5871    77.130717    89.063572    81.378838     1809.268   0.15610491   0.15944056   0.20497997   0.52052543  0.027675024  0.027670708  0.054557864    0.1099036 
  421000     -1794938    13599.937    -1626.065    77.130717    89.063572    81.378838    1802.7156   0.15698617   0.15797716   0.20655003   0.52151336  0.028802511  0.028561105  0.056089853   0.11345347 
  422000   -1794870.2     13547.94   -1813.2212    77.130717    89.063572    81.378838    1795.8231   0.15753055   0.15819336   0.20416407   0.51988798   0.02868184  0.027997741  0.056146469   0.11282605 
  423000   -1794985.5    13477.558   -1914.6533    77.130717    89.063572    81.378838    1786.4939   0.15746669   0.15956413   0.20634716   0.52337799  0.028133435  0.028611849  0.057073801   0.11381908 
  424000   -1794885.2      13512.4   -1254.9632    77.130717    89.063572    81.378838    1791.1122   0.15579788   0.15739292   0.20487344   0.51806425  0.027569752   0.02839086  0.056039145   0.11199976 
  425000   -1794947.4    13575.316   -1429.4132    77.130717    89.063572    81.378838     1799.452   0.15821514   0.15902673   0.20578897   0.52303084  0.028304972   0.02874416  0.055676201   0.11272533 
  426000   -1794930.4    13596.009   -1274.6705    77.130717    89.063572    81.378838     1802.195   0.15693714   0.15963227   0.20602819   0.52259761  0.027710206  0.029449937  0.055993115   0.11315326 
  427000   -1794865.2    13595.462    -478.8605    77.130717    89.063572    81.378838    1802.1224   0.15652886   0.15823315   0.20422756   0.51898957  0.028215008   0.02796971  0.055001925   0.11118664 
  428000   -1794916.7    13636.751   -1401.4134    77.130717    89.063572    81.378838    1807.5954     0.157741   0.16090012   0.20668116   0.52532228  0.027538355  0.029071475  0.054974614   0.11158444 
  429000   -1794897.8    13606.925   -1005.0195    77.130717    89.063572    81.378838    1803.6419   0.15537487   0.16089026   0.20717533   0.52344046  0.027861009  0.028990286  0.055844622   0.11269592 
  430000     -1794934    13675.228   -628.32785    77.130717    89.063572    81.378838    1812.6956   0.15496593   0.16026156   0.20600456   0.52123206  0.027790474   0.02907819  0.055149074   0.11201774 
  431000   -1794960.9    13642.137    -810.2309    77.130717    89.063572    81.378838    1808.3093   0.15752537   0.16043504   0.20780687   0.52576728  0.028248404  0.028239171  0.054997944   0.11148552 
  432000   -1794920.2    13566.864   -1827.9645    77.130717    89.063572    81.378838    1798.3316   0.15762799   0.16109286   0.20705507   0.52577591  0.027182728  0.029416163  0.054680071   0.11127896 
  433000   -1794975.5    13605.905   -1469.9277    77.130717    89.063572    81.378838    1803.5066   0.15795269   0.15883155   0.20564869   0.52243293   0.02827335  0.028373795  0.055141924   0.11178907 
  434000   -1794918.5    13459.752   -1565.6795    77.130717    89.063572    81.378838    1784.1336   0.15673427   0.15932327   0.20692809   0.52298563  0.028001568  0.028643099  0.054564398   0.11120907 
  435000   -1795016.4    13542.649   -2014.0827    77.130717    89.063572    81.378838    1795.1219   0.15605457   0.16044907   0.20877825   0.52528189  0.027251201  0.028446031   0.05550922   0.11120645 
  436000   -1794851.2    13610.099   -1085.1957    77.130717    89.063572    81.378838    1804.0626   0.15800865    0.1594906   0.20816134   0.52566058  0.027779061  0.028549991  0.054315368   0.11064442 
  437000   -1794922.6    13516.223   -1451.1802    77.130717    89.063572    81.378838     1791.619   0.15700709   0.15925762   0.20879311   0.52505781  0.028218254   0.02830822  0.056226592   0.11275307 
  438000   -1794912.3    13594.951   -789.89376    77.130717    89.063572    81.378838    1802.0546   0.15729707   0.16209181   0.20811801   0.52750689   0.02785518  0.028759362  0.055214552   0.11182909 
  439000   -1794884.7    13599.675   -792.97227    77.130717    89.063572    81.378838    1802.6809   0.15787838   0.16041055   0.20965366   0.52794259  0.027912411  0.029469951  0.056520957   0.11390332 
  440000     -1794991    13614.487   -1383.7573    77.130717    89.063572    81.378838    1804.6443   0.15831639   0.16133385    0.2097475   0.52939774  0.027505463   0.02861164  0.055103382   0.11122048 
  441000   -1794912.2    13611.674   -1170.0074    77.130717    89.063572    81.378838    1804.2714   0.15746987   0.16181358     0.208464   0.52774745   0.02782886  0.029617431  0.054276486   0.11172278 
  442000   -1794943.1    13624.727   -1645.7534    77.130717    89.063572    81.378838    1806.0016   0.15688765   0.16117852   0.21018723   0.52825339  0.027658607  0.028654094  0.055254452   0.11156715 
  443000   -1794931.8    13590.348   -1501.1948    77.130717    89.063572    81.378838    1801.4445   0.15767107   0.16134036   0.21046826   0.52947969  0.027268778  0.028839115  0.055661495   0.11176939 
  444000   -1794885.8    13533.102   -611.01342    77.130717    89.063572    81.378838    1793.8563   0.15841986   0.16305616   0.21179938   0.53327541  0.027509318  0.029363705  0.054783867   0.11165689 
  445000     -1794926    13626.568   -1143.1825    77.130717    89.063572    81.378838    1806.2456   0.16003518   0.16194885   0.21253501   0.53451904  0.027509165  0.028714529  0.056077236   0.11230093 
  446000   -1794881.8    13578.862    -953.1723    77.130717    89.063572    81.378838     1799.922   0.15976671   0.16246506   0.21216786   0.53439964  0.027746808  0.029092245  0.056355651    0.1131947 
  447000   -1794888.3    13562.578    -1263.463    77.130717    89.063572    81.378838    1797.7636   0.15832716   0.16117268   0.21162019   0.53112003  0.027732225  0.028408359  0.055389701   0.11153028 
  448000   -1794976.2    13617.435   -2387.9517    77.130717    89.063572    81.378838     1805.035   0.15868965   0.16170775    0.2127496     0.533147  0.027776239  0.028700619  0.055937295   0.11241415 
  449000   -1794925.2     13521.28   -1298.7807    77.130717    89.063572    81.378838    1792.2893   0.15782542    0.1628512   0.21372672   0.53440334  0.028428845  0.029373146  0.055922953   0.11372494 
  450000   -1794928.5    13660.845   -1286.6001    77.130717    89.063572    81.378838    1810.7891   0.15940133   0.16315269   0.21353261   0.53608663     0.027806  0.029407774  0.055591888   0.11280566 
  451000   -1794891.9    13556.674   -1500.0719    77.130717    89.063572    81.378838    1796.9809   0.16008742   0.16360182   0.21544521   0.53913445  0.028142885  0.029368836  0.057375751   0.11488747 
  452000   -1794946.2      13488.6   -1904.1065    77.130717    89.063572    81.378838    1787.9575   0.15991846   0.16354785   0.21470584   0.53817215  0.027361468  0.029181544  0.055935453   0.11247847 
  453000   -1794911.3    13603.487   -730.07074    77.130717    89.063572    81.378838    1803.1861   0.15894395   0.16274535   0.21593248   0.53762178   0.02784791  0.028356867  0.057774993   0.11397977 
  454000   -1794912.7    13633.985   -733.04179    77.130717    89.063572    81.378838    1807.2287   0.15909068   0.16322181   0.21578408   0.53809657  0.027837053  0.029042152  0.055589733   0.11246894 
  455000   -1794918.7     13543.25   -1260.2906    77.130717    89.063572    81.378838    1795.2015   0.15917081   0.16298557   0.21802837   0.54018475  0.027400662  0.028495772  0.057264358   0.11316079 
  456000   -1794956.9    13486.365   -1325.8015    77.130717    89.063572    81.378838    1787.6612   0.15989729   0.16525527   0.21681141   0.54196397  0.027216067  0.028938082  0.057085206   0.11323936 
  457000   -1794926.5    13623.247   -1213.0901    77.130717    89.063572    81.378838    1805.8054    0.1585152   0.16515773   0.21827163   0.54194456  0.027893784  0.028784088  0.059021047   0.11569892 
  458000   -1795029.4    13540.104   -1543.8337    77.130717    89.063572    81.378838    1794.7845   0.15880838   0.16415325   0.21394005   0.53690168  0.027951745  0.029309757  0.056237207   0.11349871 
  459000   -1794864.2    13685.999   -704.96325    77.130717    89.063572    81.378838    1814.1234   0.16097909   0.16427449   0.21552463   0.54077822  0.027755574  0.028812507  0.057679484   0.11424757 
  460000     -1794870    13624.595    -1147.668    77.130717    89.063572    81.378838    1805.9841   0.16021314   0.16479948   0.21881925   0.54383187  0.028536783  0.028450788  0.058504981   0.11549255 
  461000   -1794903.1     13595.74   -839.53676    77.130717    89.063572    81.378838    1802.1592   0.16047291   0.16335885   0.21791363   0.54174539  0.028156203  0.028295411  0.055535969   0.11198758 
  462000   -1794942.8    13574.998   -1504.1989    77.130717    89.063572    81.378838    1799.4098   0.16192162   0.16505021   0.21974483   0.54671666  0.027742769  0.029340234  0.058758015   0.11584102 
  463000   -1794984.6    13596.497   -1806.7284    77.130717    89.063572    81.378838    1802.2595   0.16029659   0.16349735   0.21873315   0.54252708  0.027450195  0.028267036  0.056824108   0.11254134 
  464000   -1795001.3    13475.051   -1856.9334    77.130717    89.063572    81.378838    1786.1615   0.16065151   0.16545178   0.22053158   0.54663488  0.027827502  0.028781273  0.057997806   0.11460658 
  465000   -1794863.6    13499.514   -915.48567    77.130717    89.063572    81.378838    1789.4042    0.1616583    0.1658254   0.22147693   0.54896063  0.028019866   0.02984539  0.058265367   0.11613062 
  466000   -1794862.2    13471.182   -1240.8862    77.130717    89.063572    81.378838    1785.6487   0.16056847   0.16533708   0.22084604   0.54675158  0.027847341  0.029461501   0.05793017   0.11523901 
  467000   -1794909.2    13558.059   -1439.1767    77.130717    89.063572    81.378838    1797.1645   0.16069081   0.16663348   0.22129117   0.54861546  0.027645382  0.029230418  0.058099779   0.11497558 
  468000   -1794985.1    13567.316   -1710.3117    77.130717    89.063572    81.378838    1798.3916   0.16145164   0.16564631   0.22132862   0.54842657  0.027882512  0.029119497  0.058430425   0.11543243 
  469000   -1794989.2    13561.097   -1295.7088    77.130717    89.063572    81.378838    1797.5672   0.16047118   0.16632138   0.22228082   0.54907338  0.027245361  0.029635004  0.059056999   0.11593736 
  470000   -1794933.6    13572.419   -1745.1788    77.130717    89.063572    81.378838    1799.0679   0.16167722   0.16520582   0.22174732   0.54863035  0.027816704  0.028068101  0.060089927   0.11597473 
  471000   -1794948.4    13547.734   -1708.9428    77.130717    89.063572    81.378838     1795.796   0.16228889   0.16610337   0.22326315   0.55165541  0.027779181  0.029045717  0.060640085   0.11746498 
  472000   -1794978.2    13542.674   -1751.5506    77.130717    89.063572    81.378838    1795.1251   0.16150442   0.16562944   0.22379218   0.55092604  0.028258517  0.028529408  0.060335942   0.11712387 
  473000   -1794832.5    13532.153   -543.05387    77.130717    89.063572    81.378838    1793.7306   0.16293647   0.16594399   0.22467812   0.55355858  0.028254001  0.028607567  0.060597788   0.11745936 
  474000   -1794845.5    13511.302   -1053.5032    77.130717    89.063572    81.378838    1790.9667   0.16408537   0.16712792   0.22508298   0.55629628  0.028104274  0.028447993  0.060552598   0.11710486 
  475000   -1794930.3    13539.678   -1233.6326    77.130717    89.063572    81.378838    1794.7281   0.16252087   0.16786783   0.22346547   0.55385418  0.027589937  0.028737486  0.060287688   0.11661511 
  476000   -1794963.9    13546.968   -1672.8724    77.130717    89.063572    81.378838    1795.6943   0.16407419   0.16792246   0.22555398   0.55755064  0.028028436  0.028274725   0.05829388   0.11459704 
  477000   -1795006.3    13645.204   -1498.8408    77.130717    89.063572    81.378838    1808.7159   0.16540839   0.16939251   0.22494813   0.55974903  0.028244559  0.028982603   0.06014215   0.11736931 
  478000   -1794883.6    13609.922   -675.05582    77.130717    89.063572    81.378838    1804.0391   0.16543875   0.16941239    0.2268358   0.56168693  0.028058971  0.028218169   0.05901788   0.11529502 
  479000   -1794972.3    13625.882   -1314.6849    77.130717    89.063572    81.378838    1806.1547   0.16541703    0.1700876   0.22592485   0.56142947  0.027699936  0.028757043  0.058275676   0.11473265 
  480000   -1794829.1    13574.587   -1329.1862    77.130717    89.063572    81.378838    1799.3553   0.16682474   0.16942449   0.22827696   0.56452619  0.027631049  0.028510067  0.060894307   0.11703542 
  481000   -1794916.7    13565.775   -1263.6384    77.130717    89.063572    81.378838    1798.1873   0.16605732   0.17001293   0.22908204   0.56515228   0.02777663  0.028351471  0.059390843   0.11551894 
  482000   -1794920.2     13526.71   -1113.0329    77.130717    89.063572    81.378838    1793.0091   0.16672037   0.17092043     0.229132    0.5667728  0.028333735   0.02863459  0.060549612   0.11751794 
  483000     -1794971     13538.23   -1626.4295    77.130717    89.063572    81.378838    1794.5361   0.16690989    0.1694748   0.22871866   0.56510335  0.028421243  0.028655463  0.059176432   0.11625314 
  484000   -1794884.8    13628.002   -1361.4529    77.130717    89.063572    81.378838    1806.4357   0.16708097    0.1712372   0.23016266   0.56848083  0.027344603   0.02906677  0.058145092   0.11455647 
  485000   -1794965.9    13592.432   -1574.4605    77.130717    89.063572    81.378838    1801.7207    0.1681731   0.16998943   0.22993934   0.56810187  0.028495857   0.02877788  0.059202588   0.11647633 
  486000   -1794947.1    13554.434   -1173.2512    77.130717    89.063572    81.378838     1796.684    0.1661685    0.1693011   0.22822619   0.56369579  0.027611895  0.028245302  0.057856225   0.11371342 
  487000   -1794819.7    13499.458   -1342.3217    77.130717    89.063572    81.378838    1789.3968   0.16779471   0.17154831   0.22978755   0.56913057  0.027543374  0.028784074  0.058819331   0.11514678 
  488000   -1794888.7    13599.194   -786.07866    77.130717    89.063572    81.378838    1802.6171   0.16807823   0.17032498   0.23000825   0.56841146  0.028079556  0.028326429  0.056167796   0.11257378 
  489000   -1794854.6     13596.25   -940.40888    77.130717    89.063572    81.378838    1802.2268   0.16786253   0.17151957   0.22931382   0.56869591  0.027394368   0.02863542  0.057212788   0.11324258 
  490000   -1794971.5    13572.238   -1406.6982    77.130717    89.063572    81.378838     1799.044   0.16693567   0.17133321   0.23002582    0.5682947  0.027685846  0.028471852  0.058758952   0.11491665 
  491000   -1794940.5    13593.467     -1421.86    77.130717    89.063572    81.378838     1801.858   0.16773444   0.17411399   0.23056055   0.57240898  0.028549343  0.028671477  0.058565468   0.11578629 
  492000   -1794900.5    13555.782   -1210.9662    77.130717    89.063572    81.378838    1796.8626   0.16674499   0.17336784   0.23204047    0.5721533  0.027966617  0.029682658  0.059929473   0.11757875 
  493000   -1794868.2     13643.34   -1075.2382    77.130717    89.063572    81.378838    1808.4688   0.16687668   0.17140962   0.23168784   0.56997414  0.027227984  0.028569966  0.057767846    0.1135658 
  494000   -1794932.1    13549.641    -1224.395    77.130717    89.063572    81.378838    1796.0487   0.16847666   0.17328513   0.23090742   0.57266921  0.028110079   0.02887473  0.057865549   0.11485036 
  495000   -1794944.1    13547.208   -823.32207    77.130717    89.063572    81.378838    1795.7262   0.16859203   0.17312599   0.23057955   0.57229757  0.027395072  0.028574537  0.057301791    0.1132714 
  496000   -1794820.6     13592.19   -84.459766    77.130717    89.063572    81.378838    1801.6887   0.16865657   0.17318378   0.23228609   0.57412644  0.027510816  0.028889288  0.056107049   0.11250715 
  497000   -1794836.2    13622.849   -1114.1687    77.130717    89.063572    81.378838    1805.7526   0.17051889   0.17350467   0.23332405   0.57734762  0.028434118  0.029036503  0.056123845   0.11359447 
  498000   -1794868.2    13568.438   -873.20413    77.130717    89.063572    81.378838    1798.5403   0.16993286   0.17498787   0.23430098   0.57922171  0.028282141  0.029321456  0.056491116   0.11409471 
  499000   -1794989.1    13557.031   -1479.1493    77.130717    89.063572    81.378838    1797.0283   0.17088125   0.17495766   0.23459377   0.58043267  0.028319387  0.029356895  0.057488729   0.11516501 
  500000   -1794942.4    13613.404   -1313.5461    77.130717    89.063572    81.378838    1804.5007    0.1704114   0.17294525   0.23492843   0.57828508  0.028215209  0.028584985   0.05738003   0.11418022 
  501000   -1794911.8    13553.347   -1618.4406    77.130717    89.063572    81.378838    1796.5399   0.16955827   0.17515615   0.23600342   0.58071784  0.027026653  0.028400256  0.059502784   0.11492969 
  502000   -1794950.1    13563.549    -1359.658    77.130717    89.063572    81.378838    1797.8922    0.1701426   0.17617067   0.23540331   0.58171658  0.027863232  0.029382118  0.059706422   0.11695177 
  503000     -1794973    13601.349   -1480.8814    77.130717    89.063572    81.378838    1802.9027   0.17048568     0.174136   0.23545103   0.58007272  0.028670614  0.028374989  0.057853447   0.11489905 
  504000   -1794953.1    13564.558   -1587.7556    77.130717    89.063572    81.378838    1798.0259   0.16994813   0.17479233    0.2332412   0.57798166  0.028543511  0.028163279  0.058494774   0.11520156 
  505000   -1795047.3    13547.864   -2106.4087    77.130717    89.063572    81.378838    1795.8131   0.17091678   0.17579305   0.23571443   0.58242426  0.027803739  0.028388941  0.058770816    0.1149635 
  506000   -1794896.1    13515.821   -1536.5516    77.130717    89.063572    81.378838    1791.5657    0.1706364   0.17481022   0.23775681   0.58320343  0.028013513  0.027999887  0.059363437   0.11537684 
  507000   -1794973.1    13526.418   -1480.5729    77.130717    89.063572    81.378838    1792.9704   0.17240139    0.1749779   0.23565518   0.58303447  0.027626088  0.028076321  0.057381821   0.11308423 
  508000   -1794871.2    13575.375   -1316.6585    77.130717    89.063572    81.378838    1799.4597   0.17337345   0.17578289   0.23663456   0.58579091    0.0294476  0.028945207  0.058927505   0.11732031 
  509000   -1794923.5    13571.894   -1138.0984    77.130717    89.063572    81.378838    1798.9983    0.1728824   0.17519308   0.23618395   0.58425943  0.028832334  0.029110327  0.058958102   0.11690076 
  510000   -1794890.3    13512.501   -1318.8859    77.130717    89.063572    81.378838    1791.1257   0.17360596   0.17610321   0.23834632   0.58805549  0.028263186  0.029040344  0.058816546   0.11612008 
  511000   -1794961.7    13678.445    -1304.546    77.130717    89.063572    81.378838    1813.1221   0.17393679   0.17538225   0.24040633   0.58972538  0.027456451  0.029035691  0.061297983   0.11779013 
  512000     -1794901    13561.868   -1208.0046    77.130717    89.063572    81.378838    1797.6693   0.17334771   0.17772433   0.23902403   0.59009606  0.028002215  0.028934855  0.059126046   0.11606312 
  513000     -1794837    13583.116   -722.41494    77.130717    89.063572    81.378838    1800.4859   0.17407088   0.17749978   0.24006977   0.59164043   0.02807745  0.029407334  0.059412481   0.11689726 
  514000   -1794957.4    13529.988   -1588.5825    77.130717    89.063572    81.378838    1793.4435   0.17197474   0.17736436   0.23922315   0.58856225  0.027047818  0.029050845  0.060892969   0.11699163 
  515000   -1794855.5    13532.967   -1163.5124    77.130717    89.063572    81.378838    1793.8385   0.17383252   0.17827124     0.239787   0.59189076  0.027262296  0.029424257   0.06033107   0.11701762 
  516000   -1794916.7    13641.798    -545.1953    77.130717    89.063572    81.378838    1808.2644   0.17305008   0.17677775   0.23961347   0.58944131  0.028039015  0.027924788   0.05983674   0.11580054 
  517000   -1794912.9    13527.542   -1408.1174    77.130717    89.063572    81.378838    1793.1194   0.17254441   0.17699603   0.23997575   0.58951618  0.027700866  0.028840756  0.060149976    0.1166916 
  518000   -1794961.2    13579.473   -1354.1542    77.130717    89.063572    81.378838     1800.003   0.17296762   0.17906341   0.23959252   0.59162355  0.027277307  0.029004183  0.061403963   0.11768545 
  519000   -1794987.7    13619.213   -1389.9552    77.130717    89.063572    81.378838    1805.2706   0.17356228    0.1768689   0.23978342    0.5902146  0.027224001  0.028165985  0.060511926   0.11590191 
  520000   -1794909.3    13626.092   -1171.2175    77.130717    89.063572    81.378838    1806.1825   0.17425568   0.17864331   0.24215413   0.59505312  0.028074157  0.028338871  0.062587064   0.11900009 
  521000   -1794884.3    13579.278   -1133.8526    77.130717    89.063572    81.378838    1799.9771    0.1744181    0.1780267   0.24174228   0.59418707  0.028043082  0.027862664  0.059763105   0.11566885 
  522000   -1794899.9    13611.618   -1156.3892    77.130717    89.063572    81.378838    1804.2639   0.17455762   0.17950638   0.24332773   0.59739173  0.028755164  0.029429047  0.062336263   0.12052047 
  523000   -1794889.8    13546.806   -1213.5597    77.130717    89.063572    81.378838    1795.6728   0.17438078   0.17887176   0.24286561   0.59611814  0.027710069   0.02834162  0.061896827   0.11794852 
  524000   -1795006.5    13622.232   -1728.9652    77.130717    89.063572    81.378838    1805.6709   0.17338761   0.17954683   0.24104643   0.59398086  0.028162372  0.028661006  0.062887252   0.11971063 
  525000   -1794891.5    13453.502    -1405.195    77.130717    89.063572    81.378838    1783.3051   0.17427723   0.17994437   0.24205168   0.59627329  0.027951573  0.029757247  0.062503792   0.12021261 
  526000   -1794938.2      13604.7   -1448.2799    77.130717    89.063572    81.378838     1803.347   0.17342159   0.17924407    0.2427546   0.59542026  0.027071346  0.029098433  0.062702773   0.11887255 
  527000   -1794872.5    13627.789   -757.80271    77.130717    89.063572    81.378838    1806.4074   0.17369067   0.17843485   0.24265974   0.59478527  0.027215351  0.028347408  0.063482799   0.11904556 
  528000   -1794879.6    13516.002   -1115.9513    77.130717    89.063572    81.378838    1791.5897   0.17516687   0.17920961   0.24343269   0.59780917  0.028006549  0.028954181   0.06324379   0.12020452 
  529000   -1794950.5    13619.709   -1914.7631    77.130717    89.063572    81.378838    1805.3365   0.17502896   0.17865703   0.24345419   0.59714019  0.027830389  0.028512541  0.065619894   0.12196282 
  530000   -1794892.5    13646.114   -1510.7357    77.130717    89.063572    81.378838    1808.8365   0.17607443    0.1792422   0.24327353   0.59859015  0.027508335  0.027695363  0.063923567   0.11912726 
  531000   -1794843.5    13631.545   -574.22279    77.130717    89.063572    81.378838    1806.9054   0.17461316   0.18009767   0.24527928   0.59999011  0.027822562  0.028636126  0.065139013    0.1215977 
  532000   -1794890.9    13641.807   -1394.4399    77.130717    89.063572    81.378838    1808.2655    0.1760027   0.17937064   0.24260998   0.59798333  0.026996728  0.029303491  0.065056516   0.12135673 
  533000   -1794949.2    13604.452   -1543.6367    77.130717    89.063572    81.378838     1803.314   0.17528963   0.17994299   0.24348781   0.59872042  0.027777347  0.028102166  0.065059257   0.12093877 
  534000   -1794865.1    13505.008   -1455.3807    77.130717    89.063572    81.378838    1790.1324   0.17621457   0.17994971   0.24363911    0.5998034  0.028473371  0.028710066  0.063301553   0.12048499 
  535000   -1794985.8    13611.475    -1165.589    77.130717    89.063572    81.378838    1804.2449   0.17657085    0.1814265   0.24355673   0.60155408  0.028269461   0.02982811   0.06336549   0.12146306 
  536000   -1794899.1    13588.306   -980.11139    77.130717    89.063572    81.378838    1801.1738   0.17656078   0.17891299   0.24416999   0.59964375  0.028326885  0.028638837  0.064150736   0.12111646 
  537000   -1794890.2    13615.685   -710.59671    77.130717    89.063572    81.378838     1804.803   0.17717295   0.18105433   0.24357952    0.6018068  0.027725705  0.028504763  0.063219097   0.11944957 
  538000   -1794799.1    13508.345   -801.44214    77.130717    89.063572    81.378838    1790.5747   0.17757948   0.18074924   0.24505284   0.60338156   0.02781914  0.029664635  0.065714749   0.12319852 
  539000   -1794846.7    13693.041   -495.61023    77.130717    89.063572    81.378838    1815.0568   0.17674164   0.18084162   0.24625369   0.60383695  0.027938667  0.028602399  0.066432251   0.12297332 
  540000   -1794989.1    13643.444   -2132.6339    77.130717    89.063572    81.378838    1808.4826   0.17768411   0.17913118    0.2459779    0.6027932  0.028668229  0.027979256  0.064183234   0.12083072 
  541000   -1794934.6    13564.151   -1745.7627    77.130717    89.063572    81.378838     1797.972   0.17625536   0.18070901   0.24595745   0.60292182  0.027360973  0.029083047  0.065382461   0.12182648 
  542000     -1794873     13531.76   -1096.1213    77.130717    89.063572    81.378838    1793.6785   0.17543964   0.18072214   0.24641001   0.60257178  0.027952915  0.028409675  0.066458151   0.12282074 
  543000   -1794806.8    13421.466   -541.04198    77.130717    89.063572    81.378838    1779.0587   0.17783757   0.17974986    0.2455065   0.60309393  0.027658159  0.028520686  0.065050698   0.12122954 
  544000     -1794884    13586.117   -460.18584    77.130717    89.063572    81.378838    1800.8837   0.17776229   0.18073649    0.2472855   0.60578428  0.028269199   0.02938068  0.067952972   0.12560285 
  545000   -1794890.5    13593.842   -847.35859    77.130717    89.063572    81.378838    1801.9077   0.17627906   0.17952026   0.24534411   0.60114344  0.028360523  0.028776789  0.066751658   0.12388897 
  546000   -1794950.2    13547.224   -1320.6274    77.130717    89.063572    81.378838    1795.7283   0.17658588    0.1800035   0.24566696   0.60225634  0.027918898  0.029180767  0.065615045   0.12271471 
  547000   -1794910.5     13605.39    -980.9658    77.130717    89.063572    81.378838    1803.4384   0.17779418   0.18123257   0.24773277   0.60675952  0.028350725  0.029199411  0.066012961    0.1235631 
  548000   -1794975.9     13506.29   -1100.5544    77.130717    89.063572    81.378838    1790.3023   0.17795208   0.18094148   0.24421452   0.60310809  0.028592954  0.029199804  0.066456984   0.12424974 
  549000   -1794911.5    13619.073   -499.35846    77.130717    89.063572    81.378838    1805.2521   0.17736104    0.1793085   0.24695435   0.60362388  0.028175994  0.028703673   0.06646861   0.12334828 
  550000   -1794849.1    13664.298   -1235.7517    77.130717    89.063572    81.378838    1811.2469    0.1772727   0.17960205    0.2457546   0.60262935  0.027351739  0.028412714  0.066151551     0.121916 
  551000   -1794857.1    13639.114    -1011.873    77.130717    89.063572    81.378838    1807.9085   0.17728892   0.18064712   0.24699578   0.60493182  0.028060309  0.029685333  0.066951932   0.12469757 
  552000   -1794901.9    13553.907   -941.91973    77.130717    89.063572    81.378838    1796.6142   0.17774588   0.18066507   0.24758169   0.60599264  0.027992083  0.028056196   0.06591425   0.12196253 
  553000   -1794831.6     13564.69   -605.17087    77.130717    89.063572    81.378838    1798.0434   0.17842816   0.18003327     0.246375   0.60483643  0.028434653   0.02792065   0.06551268   0.12186798 
  554000   -1794844.6    13524.199   -537.08789    77.130717    89.063572    81.378838    1792.6762   0.17686312   0.18195147    0.2471952   0.60600979  0.027790981  0.029571147  0.066701522   0.12406365 
  555000     -1794953    13574.074   -756.03154    77.130717    89.063572    81.378838    1799.2874   0.17736058   0.18080217   0.24535847   0.60352122   0.02697523  0.029312611  0.064749325   0.12103717 
  556000   -1794918.1    13581.645   -1310.5566    77.130717    89.063572    81.378838    1800.2909   0.17897947    0.1806088   0.24669404   0.60628231  0.029015454  0.028317065  0.067058633   0.12439115 
  557000   -1794960.4    13629.467   -1605.9301    77.130717    89.063572    81.378838    1806.6299   0.17838143   0.18164996   0.24654701    0.6065784  0.028010762  0.028637695  0.065991209   0.12263967 
  558000   -1794923.2    13628.423   -1445.0675    77.130717    89.063572    81.378838    1806.4915    0.1763206   0.18237072   0.24942052   0.60811184  0.027644471  0.028694238  0.067750355   0.12408906 
  559000   -1795002.6    13573.337   -1541.4117    77.130717    89.063572    81.378838    1799.1897   0.17769892   0.18211266   0.24865601   0.60846759  0.027083119  0.028918363   0.06585451   0.12185599 
  560000   -1794869.1    13554.775   -495.01871    77.130717    89.063572    81.378838    1796.7291   0.17777769   0.18222035   0.24746939   0.60746743  0.027772531  0.029636492  0.065742985   0.12315201 
  561000   -1794929.3    13553.316   -1359.0222    77.130717    89.063572    81.378838    1796.5358    0.1795365    0.1838365   0.24941931   0.61279232  0.028856122  0.028880377  0.066931852   0.12466835 
  562000   -1794813.8    13588.011   -381.39747    77.130717    89.063572    81.378838    1801.1347   0.17876858   0.18194683   0.24851001   0.60922542  0.027595559   0.02921629  0.066594736   0.12340659 
  563000   -1794880.7    13490.886   -721.36394    77.130717    89.063572    81.378838    1788.2605   0.17839999   0.18172181    0.2493769   0.60949869  0.027500218  0.028941853  0.067306163   0.12374823 
  564000   -1794887.6    13633.089   -1143.4727    77.130717    89.063572    81.378838    1807.1099   0.17775812   0.18393504   0.25068543    0.6123786  0.027565417  0.029176451  0.068668353   0.12541022 
  565000     -1794788    13558.988    -887.8027    77.130717    89.063572    81.378838    1797.2877   0.17902035    0.1827573   0.25012581   0.61190346    0.0280053  0.028711329  0.067427156   0.12414378 
  566000   -1794853.3    13585.496   -1013.1118    77.130717    89.063572    81.378838    1800.8013   0.17997673   0.18205934   0.24991788   0.61195395  0.027780385  0.028261975   0.06773719   0.12377955 
  567000     -1794883    13511.369   -1629.7618    77.130717    89.063572    81.378838    1790.9756   0.17701736   0.18363595   0.24927282   0.60992612  0.027661828  0.029171113   0.06690959   0.12374253 
  568000   -1794813.2    13566.713   -739.39675    77.130717    89.063572    81.378838    1798.3116   0.17837436   0.18342295   0.25139795   0.61319526  0.027588979  0.028895379  0.066984885   0.12346924 
  569000   -1794949.2    13553.101   -1322.1057    77.130717    89.063572    81.378838    1796.5073   0.17925926   0.18249335   0.24831821   0.61007082  0.027185064  0.028544195  0.066919732   0.12264899 
  570000     -1794836    13578.828   -857.24285    77.130717    89.063572    81.378838    1799.9175    0.1800103   0.18477822   0.25242568   0.61721419  0.028138054  0.029503265  0.066491955   0.12413327 
  571000   -1794858.7    13622.952   -1418.8005    77.130717    89.063572    81.378838    1805.7663   0.18084838   0.18246262   0.25223307   0.61554407  0.027994598  0.027774671  0.066588025   0.12235729 
  572000   -1794931.5    13579.086   -1285.6902    77.130717    89.063572    81.378838    1799.9517   0.18070301   0.18289823   0.25042764   0.61402888  0.027755127  0.029162875  0.064888693   0.12180669 
  573000     -1794947    13555.761   -982.75317    77.130717    89.063572    81.378838    1796.8599   0.17951566   0.18515954   0.25183494   0.61651015  0.027387878   0.02834738  0.066185162   0.12192042 
  574000   -1794920.1    13635.733   -1598.2621    77.130717    89.063572    81.378838    1807.4604   0.18027651   0.18413241    0.2519052   0.61631411  0.027522885  0.028512786  0.065565608   0.12160128 
  575000   -1794886.5    13564.107   -1418.3123    77.130717    89.063572    81.378838    1797.9662   0.18042979   0.18427588   0.25264584   0.61735151  0.027936703  0.028851633  0.065899617   0.12268795 
  576000   -1795014.8    13570.991   -1858.1092    77.130717    89.063572    81.378838    1798.8786   0.17987676   0.18437348   0.25321648   0.61746672  0.027532465  0.028195601   0.06941592   0.12514399 
  577000   -1794957.4    13528.168   -1981.7407    77.130717    89.063572    81.378838    1793.2023   0.18071094   0.18402913   0.25367736   0.61841743  0.027653161  0.028084163  0.064967217   0.12070454 
  578000     -1794973    13561.682   -1690.7567    77.130717    89.063572    81.378838    1797.6448   0.18121914   0.18570948   0.25343424   0.62036285  0.028357762  0.028662167  0.065699073     0.122719 
  579000   -1794893.2    13601.179   -940.75807    77.130717    89.063572    81.378838    1802.8802    0.1808694   0.18550187   0.25215298   0.61852425  0.027524676  0.028760002  0.064268001   0.12055268 
  580000     -1794894    13614.338   -999.95507    77.130717    89.063572    81.378838    1804.6245   0.18074999   0.18414808   0.25208046   0.61697853  0.027728062  0.028269347   0.06211184   0.11810925 
  581000   -1794879.1     13586.95   -810.08474    77.130717    89.063572    81.378838    1800.9942   0.18184054   0.18585585   0.25632529   0.62402167  0.028243533  0.029465804  0.065363759    0.1230731 
  582000   -1794916.4    13734.588   -975.82952    77.130717    89.063572    81.378838     1820.564    0.1807805   0.18611946   0.25570252   0.62260248  0.026776742  0.028935772  0.063447987    0.1191605 
  583000   -1794906.7    13609.499   -1469.3959    77.130717    89.063572    81.378838    1803.9831   0.18115739   0.18627306   0.25504956   0.62248001  0.027291698  0.028440898  0.065445281   0.12117788 
  584000   -1794898.8    13531.547   -1304.8341    77.130717    89.063572    81.378838    1793.6502   0.18255974   0.18677735   0.25383067   0.62316777  0.028198022  0.028795328  0.062807417   0.11980077 
  585000     -1794894    13586.372   -836.43557    77.130717    89.063572    81.378838    1800.9175   0.18246529   0.18546777   0.25721277   0.62514584  0.027159967  0.028310682  0.063389927   0.11886058 
  586000   -1794944.8    13606.798   -962.42801    77.130717    89.063572    81.378838     1803.625   0.18195166   0.18736409   0.25979833   0.62911407  0.027175717  0.029325527  0.066082695   0.12258394 
  587000   -1794939.8    13566.353   -1192.3528    77.130717    89.063572    81.378838    1798.2639   0.18391032   0.18859073   0.25596259   0.62846363  0.027587613  0.029259787  0.063170245   0.12001765 
  588000   -1794902.7    13586.932   -1619.5438    77.130717    89.063572    81.378838    1800.9917   0.18227216   0.18630018   0.25694668   0.62551902  0.027106056  0.029136264  0.063425455   0.11966777 
  589000   -1794893.2    13597.202   -1070.6647    77.130717    89.063572    81.378838     1802.353    0.1838494   0.18906698   0.25630472   0.62922111  0.027819384  0.029098622  0.063104591    0.1200226 
  590000   -1794911.7    13569.614    -1249.702    77.130717    89.063572    81.378838    1798.6961    0.1820254   0.18778149   0.25645276   0.62625965  0.027845423  0.028625992  0.061647114   0.11811853 
  591000   -1794963.7     13637.34   -872.83432    77.130717    89.063572    81.378838    1807.6735   0.18400776   0.18734151    0.2560493   0.62739856  0.027941228   0.02838739  0.064948284    0.1212769 
  592000   -1794969.6    13625.932   -1427.4896    77.130717    89.063572    81.378838    1806.1613   0.18379551    0.1871511   0.25588373   0.62683034  0.028084324  0.028651755  0.062432625    0.1191687 
  593000   -1794919.6    13576.374    -1230.071    77.130717    89.063572    81.378838    1799.5922   0.18234234   0.18824182   0.25683552   0.62741968  0.027111159  0.028321055  0.062673257   0.11810547 
  594000   -1794904.6    13679.651    -1244.427    77.130717    89.063572    81.378838     1813.282   0.18311892   0.18869409   0.25688808   0.62870109  0.027054327  0.028414841  0.060700599   0.11616977 
  595000   -1794923.5    13603.614   -791.91285    77.130717    89.063572    81.378838     1803.203    0.1838823   0.18774727   0.25747037   0.62909993  0.027718465   0.02914674  0.062458419   0.11932362 
  596000   -1794945.8    13594.415   -1227.6967    77.130717    89.063572    81.378838    1801.9836   0.18476597   0.18790991   0.25782748   0.63050336  0.027640176  0.028708057  0.061867492   0.11821572 
  597000   -1794906.5    13583.609   -1039.8102    77.130717    89.063572    81.378838    1800.5513   0.18435853   0.18918854   0.25744373   0.63099079  0.027700753  0.029960058  0.062267701   0.11992851 
  598000   -1794867.3    13649.384   -1041.3084    77.130717    89.063572    81.378838      1809.27   0.18364117   0.18793306   0.25884173   0.63041597  0.027143568  0.028973019  0.061858802   0.11797539 
  599000   -1794919.6     13521.77   -1527.2397    77.130717    89.063572    81.378838    1792.3543   0.18565402   0.18751623   0.25682815   0.62999841  0.028568144  0.028286347  0.060689597   0.11754409 
  600000   -1794962.4    13609.261   -1229.0805    77.130717    89.063572    81.378838    1803.9515   0.18574735   0.18803327   0.25958575   0.63336638  0.028071381  0.029412991  0.061881408   0.11936578 
  601000   -1794834.7    13602.327   -896.35266    77.130717    89.063572    81.378838    1803.0324   0.18562756   0.18830561   0.26116048   0.63509364  0.028658407  0.028583729  0.062690455   0.11993259 
  602000   -1794840.2    13515.878   -1121.7226    77.130717    89.063572    81.378838    1791.5733   0.18666106   0.18737999   0.25988657   0.63392762  0.028227876  0.028325615  0.062287056   0.11884055 
  603000   -1794851.4    13622.428    -886.8325    77.130717    89.063572    81.378838    1805.6968   0.18476546   0.18682727   0.25991062   0.63150335  0.028223377  0.028405255  0.061192734   0.11782137 
  604000   -1794860.3    13569.499   -1011.9857    77.130717    89.063572    81.378838    1798.6809    0.1849965   0.19005419   0.25883986   0.63389054  0.028745805  0.028603806  0.062146831   0.11949644 
  605000   -1794824.2    13612.979   -922.11242    77.130717    89.063572    81.378838    1804.4443   0.18488648   0.18798311   0.25963553   0.63250512  0.027743146  0.028266943  0.062152842   0.11816293 
  606000     -1794874    13601.663   -1104.5773    77.130717    89.063572    81.378838    1802.9444   0.18557649   0.18873758   0.25690041   0.63121448  0.028886308  0.028063272  0.060943692   0.11789327 
  607000   -1794872.6    13568.352   -636.80919    77.130717    89.063572    81.378838    1798.5289   0.18499598   0.18934189   0.25759795   0.63193582  0.027924573  0.029613891  0.061795649   0.11933411 
  608000   -1794866.9    13540.001   -723.06955    77.130717    89.063572    81.378838    1794.7708   0.18637078   0.18890498    0.2593225   0.63459827   0.02862816  0.028723662  0.062276723   0.11962855 
  609000   -1794884.5    13551.356   -1070.3399    77.130717    89.063572    81.378838     1796.276   0.18653337   0.18852268   0.25934404   0.63440009  0.028755168  0.028797302  0.060956511   0.11850898 
  610000   -1794856.5    13627.651   -896.31999    77.130717    89.063572    81.378838    1806.3891   0.18610023   0.18864927   0.26038226   0.63513176  0.028474538  0.028748286  0.061554622   0.11877745 
  611000   -1794897.5    13579.504   -1294.1568    77.130717    89.063572    81.378838    1800.0071   0.18749882   0.18940181   0.26175396   0.63865459  0.028990125  0.028440249  0.062164159   0.11959453 
  612000   -1794854.3    13628.876    -503.4402    77.130717    89.063572    81.378838    1806.5515   0.18723756   0.19036467   0.26123164   0.63883387  0.028415915  0.029042642  0.062432415   0.11989097 
  613000   -1794871.6    13541.415   -805.60688    77.130717    89.063572    81.378838    1794.9584   0.18859187   0.18973904    0.2622403   0.64057121  0.027657579  0.028631705  0.062496762   0.11878605 
  614000     -1794983    13570.251   -1752.0796    77.130717    89.063572    81.378838    1798.7806   0.18645478   0.19144505   0.26191695   0.63981678  0.027708834  0.028252779  0.062913537   0.11887515 
  615000   -1794878.5    13542.546   -1023.0121    77.130717    89.063572    81.378838    1795.1082   0.18687184     0.192051   0.26109927   0.64002211  0.027513966  0.028240797  0.062797345   0.11855211 
  616000   -1794841.2    13615.943   -1439.7419    77.130717    89.063572    81.378838    1804.8372    0.1898525   0.19062079   0.26413822   0.64461151  0.028035031  0.028300705   0.06351381   0.11984955 
  617000   -1795004.7    13628.421    -1878.015    77.130717    89.063572    81.378838    1806.4912   0.18738158   0.19050113     0.264563   0.64244571  0.026727554  0.028875022  0.062874766   0.11847734 
  618000   -1794845.6    13595.698   -1017.9279    77.130717    89.063572    81.378838    1802.1537   0.18832208   0.19205983   0.26398588   0.64436779  0.027699379  0.027654794   0.06208879   0.11744296 
  619000     -1794944    13642.898   -1127.0666    77.130717    89.063572    81.378838    1808.4102   0.18865699   0.19207647   0.26641466   0.64714813  0.027602249  0.028383899  0.066469108   0.12245526 
  620000   -1794916.2     13512.29   -979.59784    77.130717    89.063572    81.378838    1791.0977   0.18974182   0.19124506   0.26543077   0.64641765  0.028115826  0.028509322  0.064764332   0.12138948 
  621000   -1794924.6    13584.697   -894.90517    77.130717    89.063572    81.378838    1800.6954   0.18976752    0.1919172   0.26364832   0.64533305  0.028208264  0.028612254  0.066069937   0.12289045 
  622000     -1794911     13624.25   -1268.1734    77.130717    89.063572    81.378838    1805.9383   0.19026341   0.19301816   0.26618902   0.64947058  0.027457802  0.028200962  0.064626326   0.12028509 
  623000   -1794868.9    13548.486   -938.39906    77.130717    89.063572    81.378838    1795.8955   0.19012708   0.19302406   0.26591429   0.64906543  0.028086913  0.028993316  0.063938327   0.12101856 
  624000   -1794941.3    13529.858   -1290.9516    77.130717    89.063572    81.378838    1793.4263   0.19075537   0.19365242   0.26480083   0.64920862  0.027517431  0.028997914  0.064432265   0.12094761 
  625000     -1794930    13521.145   -1570.0448    77.130717    89.063572    81.378838    1792.2714    0.1892856   0.19403523    0.2647614   0.64808223  0.027964649  0.028562936  0.064218395   0.12074598 
  626000     -1794919    13671.169   -827.90873    77.130717    89.063572    81.378838    1812.1576   0.19023336   0.19348407    0.2648922   0.64860963  0.028369766  0.028950417  0.064780672   0.12210086 
  627000   -1794955.9    13570.292    -1261.343    77.130717    89.063572    81.378838     1798.786   0.19069088   0.19362608   0.26650734    0.6508243  0.028348852  0.028805281  0.062381504   0.11953564 
  628000   -1794974.5    13548.815   -1268.8783    77.130717    89.063572    81.378838    1795.9392   0.18858612   0.19392788   0.26783039   0.65034438  0.026987616  0.028711806  0.062078525   0.11777795 
  629000   -1794870.2    13625.989   -862.71501    77.130717    89.063572    81.378838    1806.1688   0.19161547   0.19349705   0.26938654   0.65449906  0.028274032  0.028122851  0.063076809   0.11947369 
  630000     -1794975    13668.746   -1606.7612    77.130717    89.063572    81.378838    1811.8364   0.19128355   0.19374442   0.27134342   0.65637139    0.0281746  0.029147582  0.064698722    0.1220209 
  631000   -1794869.4    13568.555   -687.99324    77.130717    89.063572    81.378838    1798.5558   0.18914278   0.19474243   0.27150655   0.65539176  0.027622719  0.029271807  0.065249125   0.12214365 
  632000     -1794912     13556.64   -1132.3762    77.130717    89.063572    81.378838    1796.9765   0.18967804    0.1936438    0.2683732   0.65169504  0.027800701  0.028634361  0.064758585   0.12119365 
  633000   -1794877.6    13625.499    -1016.598    77.130717    89.063572    81.378838     1806.104   0.19023718   0.19411969   0.26910445   0.65346132  0.027925107  0.028610886  0.063911368   0.12044736 
  634000   -1794935.6     13602.51    -1415.783    77.130717    89.063572    81.378838    1803.0567   0.18855958   0.19516922   0.26940972   0.65313853  0.027285705  0.027884332  0.064171606   0.11934164 
  635000   -1794968.2    13625.549    -1264.412    77.130717    89.063572    81.378838    1806.1105   0.19073621    0.1968503   0.27070156   0.65828807  0.027064204  0.028592614  0.062909801   0.11856662 
  636000   -1794925.7    13503.685   -1726.3372    77.130717    89.063572    81.378838    1789.9571   0.19139698   0.19667479   0.26992318   0.65799495  0.028826871  0.028371692  0.064978719   0.12217728 
  637000   -1794773.3     13544.95     -112.895    77.130717    89.063572    81.378838    1795.4269   0.19203855   0.19731728   0.27138646   0.66074229  0.028525398  0.029144681  0.065893512   0.12356359 
  638000     -1794890    13656.011   -919.58177    77.130717    89.063572    81.378838    1810.1484   0.19116139   0.19712186   0.27179042   0.66007367  0.028457435   0.02836301  0.065514893   0.12233534 
  639000   -1794935.2      13585.8   -1166.9682    77.130717    89.063572    81.378838    1800.8416   0.19310211   0.19699974   0.27146437   0.66156622  0.028957232  0.028312173  0.065975914   0.12324532 
  640000   -1794844.3    13476.911   -1039.4713    77.130717    89.063572    81.378838    1786.4081   0.19240724   0.19802746   0.27186376   0.66229846  0.028428867  0.029769567  0.067675595   0.12587403 
  641000   -1794815.9    13530.842    -941.5574    77.130717    89.063572    81.378838    1793.5567   0.19289097   0.19745638   0.27326161   0.66360896  0.027977645  0.029174481  0.066428071    0.1235802 
  642000   -1795003.3     13592.18   -1636.9334    77.130717    89.063572    81.378838    1801.6874   0.19221704   0.19765793   0.27188019   0.66175516  0.027619501  0.028569605  0.066256094    0.1224452 
  643000   -1794971.2    13560.371   -1626.1509    77.130717    89.063572    81.378838     1797.471   0.19343287   0.19775214   0.27407302   0.66525802  0.027521535  0.028923024  0.064052284   0.12049684 
  644000   -1794928.1    13582.678   -1137.3968    77.130717    89.063572    81.378838    1800.4278   0.19304893   0.19845361   0.27452792   0.66603046  0.028426528  0.028679197  0.065626879    0.1227326 
  645000   -1794894.3    13607.703   -1201.1878    77.130717    89.063572    81.378838     1803.745   0.19367017   0.19833608   0.27263391   0.66464016  0.028376715  0.028404972  0.065505631   0.12228732 
  646000     -1794896    13564.708   -1332.3775    77.130717    89.063572    81.378838    1798.0458   0.19484961   0.19915251   0.27388215   0.66788427   0.02896401  0.028975687   0.06471532   0.12265502 
  647000   -1794845.8    13542.114   -1211.6773    77.130717    89.063572    81.378838     1795.051     0.194098   0.19975671   0.27320874   0.66706345  0.028588797  0.028749379  0.064838878   0.12217705 
  648000   -1794990.8    13563.326    -1901.075    77.130717    89.063572    81.378838    1797.8627   0.19455312   0.19933215   0.27371095   0.66759623  0.029356459  0.028428256  0.065733637   0.12351835 
  649000   -1794872.3    13576.289   -1240.0137    77.130717    89.063572    81.378838    1799.5809   0.19552292   0.19773429   0.27389884   0.66715605  0.028219389  0.027940228  0.064339703   0.12049932 
  650000     -1794914    13602.829    -1418.399    77.130717    89.063572    81.378838     1803.099   0.19561097   0.19790318   0.27540872   0.66892287  0.029175359   0.02843901  0.064935209   0.12254958 
  651000   -1794871.9    13557.029   -709.27673    77.130717    89.063572    81.378838     1797.028   0.19635942     0.198931   0.27453132   0.66982174   0.02851911  0.028237734  0.067835127   0.12459197 
  652000   -1794977.8    13574.952    -1524.976    77.130717    89.063572    81.378838    1799.4037    0.1965517   0.19999025   0.27344996   0.66999192  0.028151949  0.029021161  0.065749803   0.12292291 
  653000   -1794984.9    13594.663   -1605.6415    77.130717    89.063572    81.378838    1802.0164   0.19594067   0.20122478   0.27562207   0.67278752  0.028058561  0.028456056  0.066399983    0.1229146 
  654000   -1794996.3    13564.804   -1459.6408    77.130717    89.063572    81.378838    1798.0586   0.19674129   0.20198942   0.27761415   0.67634485  0.029009936  0.028545653    0.0663161   0.12387169 
  655000   -1794891.1    13580.183   -803.26734    77.130717    89.063572    81.378838    1800.0971   0.19810296   0.20280063   0.27525363   0.67615722  0.028831696  0.028246827  0.066282629   0.12336115 
  656000   -1794881.4    13605.532     -1318.95    77.130717    89.063572    81.378838    1803.4572   0.19575025   0.20171116   0.27710965   0.67457105  0.027199522  0.028662024  0.066748476   0.12261002 
  657000   -1794904.8     13531.37   -1489.9665    77.130717    89.063572    81.378838    1793.6267   0.19679383   0.20500664    0.2772142   0.67901467  0.027670812  0.028891186  0.065896925   0.12245892 
  658000   -1794982.6    13594.548   -1462.4638    77.130717    89.063572    81.378838    1802.0013   0.19769723    0.2030204    0.2787099   0.67942752  0.027445658  0.028147225  0.066636028   0.12222891 
  659000   -1794879.2     13593.87   -1144.1002    77.130717    89.063572    81.378838    1801.9114   0.19620155   0.20461846   0.28019618   0.68101619  0.028304596  0.029012857  0.066532446    0.1238499 
  660000   -1794974.1    13631.108   -1690.1176    77.130717    89.063572    81.378838    1806.8474   0.19817202   0.20382129   0.27876209    0.6807554   0.02813085  0.028061647  0.066031652   0.12222415 
  661000     -1794962    13637.759   -1028.8863    77.130717    89.063572    81.378838     1807.729   0.19800473   0.20417139   0.27743654   0.67961267  0.028335667  0.028278031  0.065747305     0.122361 
  662000   -1794954.2    13571.207   -722.34005    77.130717    89.063572    81.378838    1798.9074   0.19721567   0.20313788   0.27942973   0.67978328  0.027315035  0.028618413  0.065969291   0.12190274 
  663000   -1794855.7    13577.392    -639.5756    77.130717    89.063572    81.378838    1799.7271   0.20002429   0.20382981   0.27960036   0.68345445  0.028104893  0.028681103  0.065673601    0.1224596 
  664000   -1794993.8    13683.851   -1747.6006    77.130717    89.063572    81.378838    1813.8387   0.20042273   0.20323947   0.27780375   0.68146595  0.028729011   0.02908226  0.065822426    0.1236337 
  665000   -1794862.2    13597.862   -669.23018    77.130717    89.063572    81.378838    1802.4405   0.19797094   0.20429557    0.2817771    0.6840436  0.028312177  0.029108567  0.067237616   0.12465836 
  666000   -1794986.3    13532.773   -2127.5165    77.130717    89.063572    81.378838    1793.8128   0.19860061   0.20372769   0.28052856   0.68285686  0.027761868   0.02875692  0.066652751   0.12317154 
  667000   -1794829.6    13573.571   -679.78288    77.130717    89.063572    81.378838    1799.2207   0.19889832   0.20517238   0.28092708   0.68499777  0.028277911  0.029496918  0.065689595   0.12346442 
  668000     -1794976    13534.957   -1752.3128    77.130717    89.063572    81.378838    1794.1023   0.19773718    0.2024191   0.27973086   0.67988713    0.0277105   0.02844252  0.065297136   0.12145016 
  669000   -1794970.3    13613.094   -1242.3623    77.130717    89.063572    81.378838    1804.4595   0.19865926    0.2038288   0.28005899   0.68254704  0.027175859  0.028179466  0.066078659   0.12143398 
  670000   -1794946.5    13569.779   -1031.9065    77.130717    89.063572    81.378838     1798.718   0.19836265   0.20260345   0.28087485   0.68184094  0.027399499  0.028458638  0.065847164    0.1217053 
  671000   -1794951.8    13630.182   -1551.6847    77.130717    89.063572    81.378838    1806.7246   0.19844254    0.2032227   0.28166909   0.68333433  0.026962115  0.027784077  0.066425202   0.12117139 
  672000   -1794952.7    13505.746   -1516.4511    77.130717    89.063572    81.378838    1790.2303   0.19801169    0.2034116    0.2813729   0.68279619  0.027694401  0.027739127  0.065751568    0.1211851 
  673000   -1794836.1    13581.655   -791.57842    77.130717    89.063572    81.378838    1800.2923   0.19992114   0.20461658   0.28030817   0.68484589   0.02801696  0.028665293  0.065422761   0.12210501 
  674000   -1794997.2    13624.641   -1586.9835    77.130717    89.063572    81.378838    1805.9902   0.19836809   0.20287994   0.27963994   0.68088797  0.027067468  0.027852152   0.06616971   0.12108933 
  675000   -1794828.6     13558.26   -734.33857    77.130717    89.063572    81.378838    1797.1911   0.19907608   0.20540667   0.27864871   0.68313146  0.027567112  0.028300722  0.065289002   0.12115684 
  676000   -1794868.5     13560.05   -872.30566    77.130717    89.063572    81.378838    1797.4284   0.20126765   0.20597891   0.28249289   0.68973946  0.029500502  0.029632663  0.066679199   0.12581236 
  677000     -1794853    13565.194   -1269.0287    77.130717    89.063572    81.378838    1798.1102   0.19891765   0.20665085   0.28043711   0.68600561  0.027217521  0.029076282  0.066353449   0.12264725 
  678000   -1794878.4    13548.241    -583.1629    77.130717    89.063572    81.378838     1795.863   0.20018763   0.20449381    0.2797094   0.68439084   0.02784586  0.028830714  0.066706935   0.12338351 
  679000   -1794863.9    13547.596   -1205.0003    77.130717    89.063572    81.378838    1795.7776   0.20034003   0.20654249   0.28045755   0.68734007  0.028455759   0.02915149  0.067232513   0.12483976 
  680000   -1794946.1    13615.613   -1353.6242    77.130717    89.063572    81.378838    1804.7935    0.1993711   0.20533386     0.280076   0.68478097  0.027580881  0.028255663  0.065935715   0.12177226 
  681000   -1794976.7    13608.263   -832.83485    77.130717    89.063572    81.378838    1803.8193   0.19869448   0.20460716   0.28049188   0.68379351  0.027795586  0.028939133  0.067205483    0.1239402 
  682000   -1794949.7    13657.058   -1396.0679    77.130717    89.063572    81.378838    1810.2871   0.19939137   0.20511247   0.28111398   0.68561782  0.027746943  0.028709514  0.067620109   0.12407657 
  683000   -1794965.5    13573.867   -1519.4825    77.130717    89.063572    81.378838    1799.2599   0.19815745   0.20445372    0.2802066   0.68281777   0.02767405  0.027044991  0.067692262    0.1224113 
  684000   -1794844.4    13631.974   -419.04671    77.130717    89.063572    81.378838    1806.9622   0.19768441   0.20506119    0.2791001    0.6818457  0.026831276  0.029003564  0.066265919   0.12210076 
  685000   -1794895.7    13636.157   -1281.6652    77.130717    89.063572    81.378838    1807.5166   0.19940118   0.20702046   0.28334185   0.68976349  0.027971664  0.028143507  0.066566526    0.1226817 
  686000   -1794858.3    13516.243   -748.11602    77.130717    89.063572    81.378838    1791.6216    0.1999538   0.20550909   0.28052112   0.68598401  0.027815338  0.028549648  0.064508287   0.12087327 
  687000   -1794920.8    13676.132   -838.30036    77.130717    89.063572    81.378838    1812.8155   0.19900499   0.20567436   0.28239991   0.68707925   0.02780061   0.02774057   0.06657107   0.12211225 
  688000     -1794933     13536.41   -1196.3279    77.130717    89.063572    81.378838    1794.2948   0.19803449   0.20696666   0.28057098   0.68557212  0.027546055   0.02959071  0.066240925   0.12337769 
  689000   -1794914.5    13579.313   -1117.9974    77.130717    89.063572    81.378838    1799.9818   0.19976167   0.20466832   0.28049151   0.68492151  0.027594591  0.028648725  0.065542613   0.12178593 
  690000   -1794872.4    13610.268   -917.86642    77.130717    89.063572    81.378838    1804.0849   0.19879113   0.20639315   0.28194388   0.68712816  0.027484426  0.028236145  0.065164171   0.12088474 
  691000   -1794832.9    13596.912   -580.27251    77.130717    89.063572    81.378838    1802.3146   0.20088755    0.2073709   0.28225177   0.69051022  0.028361786  0.029332905  0.066606893   0.12430158 
  692000   -1794918.1    13618.394   -894.83025    77.130717    89.063572    81.378838    1805.1622   0.20037178   0.20672512   0.28156851   0.68866541  0.027911798  0.028521838  0.067220316   0.12365395 
  693000   -1794961.1     13539.05   -1572.6367    77.130717    89.063572    81.378838    1794.6448   0.20076663   0.20719878   0.28274096   0.69070638   0.02731964  0.028486296  0.067043196   0.12284913 
  694000   -1794899.8    13665.155   -897.40093    77.130717    89.063572    81.378838    1811.3605   0.20062178   0.20574175   0.28499745   0.69136098  0.027673688  0.028368327  0.068146551   0.12418857 
  695000   -1794960.3    13621.814   -1488.0746    77.130717    89.063572    81.378838    1805.6155   0.20048211   0.20831759   0.28153819   0.69033789   0.02749998  0.028894694  0.063623441   0.12001811 
  696000   -1794860.5    13504.708   -1447.0265    77.130717    89.063572    81.378838    1790.0926   0.20061618   0.20854801   0.28646246   0.69562665  0.028159594  0.029041789  0.067733897   0.12493528 
  697000   -1794885.5    13532.823   -1056.0035    77.130717    89.063572    81.378838    1793.8194   0.20205832   0.20869754   0.28602886   0.69678472  0.027489434  0.028793043  0.066151078   0.12243355 
  698000   -1794916.6    13636.739   -1035.9023    77.130717    89.063572    81.378838    1807.5939   0.20192212   0.20669073   0.28600773   0.69462057  0.027871134  0.028511333  0.066031607   0.12241407 
  699000   -1794855.6    13545.992    -942.6737    77.130717    89.063572    81.378838     1795.565   0.20178082    0.2078702   0.28376274   0.69341376  0.027555139   0.02907235  0.065555419   0.12218291 
  700000   -1794991.2    13617.946   -2104.9091    77.130717    89.063572    81.378838    1805.1027   0.20104506   0.20792349   0.28248861   0.69145716  0.027399395   0.02846518  0.063826311   0.11969089 
  701000   -1794829.3    13528.203   -1141.0206    77.130717    89.063572    81.378838    1793.2069   0.20348313   0.20817168   0.28409961   0.69575441  0.027546091  0.028410712  0.065619819   0.12157662 
  702000   -1794864.6     13574.16   -482.74602    77.130717    89.063572    81.378838    1799.2987   0.20184615   0.20820688   0.28394365   0.69399669  0.027578985  0.029198374  0.068282199   0.12505956 
  703000   -1794945.1    13606.312   -1330.3455    77.130717    89.063572    81.378838    1803.5606   0.20218987   0.20766504   0.28313535   0.69299026  0.027153197  0.028816174  0.067559497   0.12352887 
  704000   -1794912.6     13602.93   -1565.0782    77.130717    89.063572    81.378838    1803.1123   0.20293938   0.20759458   0.28704165   0.69757561  0.028290095  0.027345996  0.067842188   0.12347828 
  705000     -1794950    13557.391   -1132.0763    77.130717    89.063572    81.378838     1797.076   0.20243861   0.20886002   0.28543786    0.6967365  0.027610228  0.028633229  0.068020717   0.12426417 
  706000   -1794925.7    13557.206   -1130.4214    77.130717    89.063572    81.378838    1797.0514   0.20437135   0.20843133   0.28518378   0.69798645  0.027642624   0.02836802  0.067800536   0.12381118 
  707000   -1794836.5    13622.959   -540.26918    77.130717    89.063572    81.378838    1805.7671   0.20298517   0.21040632   0.28502937   0.69842085  0.027711028  0.028696972  0.067870866   0.12427887 
  708000   -1794980.8    13576.181    -1326.378    77.130717    89.063572    81.378838    1799.5667   0.20413314   0.20783028   0.28687582   0.69883925  0.026898128  0.028859013  0.069737994   0.12549514 
  709000   -1794842.1    13602.768   -1208.6174    77.130717    89.063572    81.378838    1803.0909   0.20601951    0.2102118   0.28571627   0.70194758   0.02808033  0.028845676  0.067199405   0.12412541 
  710000   -1794970.8    13536.417   -1401.5109    77.130717    89.063572    81.378838    1794.2958   0.20465119   0.20797761   0.28452305   0.69715185   0.02843407  0.028645234  0.067152019   0.12423132 
  711000   -1794936.6    13632.817   -1099.3648    77.130717    89.063572    81.378838    1807.0739   0.20527568   0.20654913   0.28740286   0.69922766  0.028114516  0.027870157  0.068416289   0.12440096 
  712000   -1794843.6    13545.609   -1180.9075    77.130717    89.063572    81.378838    1795.5142   0.20459694   0.20971149   0.28959349   0.70390193  0.027288881  0.027993496  0.067888735   0.12317111 
  713000   -1794950.9    13577.002   -1796.0759    77.130717    89.063572    81.378838    1799.6754   0.20518245   0.20968194   0.28907588   0.70394027   0.02767912  0.028655749   0.06901992   0.12535479 
  714000   -1794914.1    13621.353   -555.23104    77.130717    89.063572    81.378838    1805.5543   0.20264832    0.2085381   0.28688628    0.6980727  0.027667838  0.028627403  0.069055718   0.12535096 
  715000   -1794904.3    13573.919   -1235.2375    77.130717    89.063572    81.378838    1799.2668   0.20326996   0.20909428   0.28696229   0.69932653  0.027774462  0.028383715  0.069069953   0.12522813 
  716000   -1794851.5    13549.939   -793.64955    77.130717    89.063572    81.378838    1796.0882   0.20461108   0.20858516   0.28795115    0.7011474  0.028326589  0.027981059  0.069244349     0.125552 
  717000   -1794868.2    13613.179   -769.67184    77.130717    89.063572    81.378838    1804.4708   0.20431772   0.20898991   0.28591232   0.69921995   0.02792091  0.028646723  0.066729155   0.12329679 
  718000   -1794911.1    13558.267   -1012.1628    77.130717    89.063572    81.378838    1797.1921   0.20481512   0.20913543   0.28708895   0.70103951  0.028008233  0.028285741  0.068906226    0.1252002 
  719000   -1794947.4    13575.196   -1093.1263    77.130717    89.063572    81.378838    1799.4361   0.20352081   0.20974052   0.28533106   0.69859239  0.027090399   0.02834518   0.06636245   0.12179803 
  720000   -1794903.9    13539.512   -1330.6028    77.130717    89.063572    81.378838     1794.706   0.20624324   0.21044573   0.28786646   0.70455544  0.027344273  0.028812551   0.06737697   0.12353379 
  721000   -1794968.6    13606.305   -1357.0351    77.130717    89.063572    81.378838    1803.5597     0.206182   0.20928907   0.28874166   0.70421273  0.028237085  0.027858004  0.067472516    0.1235676 
  722000   -1794935.6    13555.824   -1504.7959    77.130717    89.063572    81.378838    1796.8683   0.20733455    0.2103058   0.28802713   0.70566749  0.028395296   0.02858595  0.068957693   0.12593894 
  723000   -1794937.3    13530.626   -2027.4794    77.130717    89.063572    81.378838    1793.5282   0.20540245   0.20916639   0.28753719   0.70210604  0.028503643  0.028860315  0.068234554   0.12559851 
  724000   -1795033.6    13604.019   -2036.5374    77.130717    89.063572    81.378838    1803.2567   0.20541088   0.20860828    0.2873985   0.70141766  0.027568508  0.028160874   0.06834253   0.12407191 
  725000     -1794818    13617.221   -1022.3974    77.130717    89.063572    81.378838    1805.0066   0.20527722   0.20963544   0.28858905   0.70350171  0.028410163  0.028338724  0.068198679   0.12494757 
  726000   -1794873.5    13661.454   -664.14273    77.130717    89.063572    81.378838    1810.8698   0.20628282   0.20989446    0.2873668   0.70354408  0.028168474  0.028900124  0.068713067   0.12578166 
  727000   -1794907.8    13671.292   -852.15245    77.130717    89.063572    81.378838     1812.174   0.20579511   0.21123021   0.28846972   0.70549505  0.028814666  0.028060903  0.068938213   0.12581378 
  728000   -1794922.3    13525.956   -1846.6117    77.130717    89.063572    81.378838    1792.9092   0.20749375   0.20992096   0.28744128   0.70485599   0.02891332  0.028528155  0.067823647   0.12526512 
  729000   -1794945.6    13577.311   -2556.0856    77.130717    89.063572    81.378838    1799.7165   0.20747743   0.21250402   0.28723179   0.70721324  0.027807485  0.029080502  0.067109522   0.12399751 
  730000   -1795048.9    13606.875   -1574.1944    77.130717    89.063572    81.378838    1803.6353   0.20646159   0.21255505   0.28796636     0.706983  0.028278791  0.028315339  0.069348256   0.12594239 
  731000   -1794892.7    13563.259   -1459.9915    77.130717    89.063572    81.378838    1797.8538   0.20613566   0.21108932   0.28833112   0.70555609  0.027942634  0.028881485  0.070276438   0.12710056 
  732000   -1794877.9    13556.065   -754.81936    77.130717    89.063572    81.378838    1796.9002   0.20772048   0.21069094   0.29152681   0.70993824  0.027580204  0.028758364  0.070221119   0.12655969 
  733000   -1794907.1    13590.953   -1423.6951    77.130717    89.063572    81.378838    1801.5247   0.20761501   0.21151135   0.29079579   0.70992214  0.027981028  0.029098813  0.069401983   0.12648182 
  734000   -1794955.3    13530.918   -1603.5657    77.130717    89.063572    81.378838    1793.5669   0.20901936   0.21001052   0.29120998   0.71023986   0.02895696  0.027509832  0.069741295   0.12620809 
  735000   -1794884.4    13614.621   -865.62999    77.130717    89.063572    81.378838    1804.6619   0.20975102   0.21069914   0.29066972   0.71111989  0.028073752  0.028546122  0.071131529    0.1277514 
  736000   -1794839.9    13544.032    -642.2987    77.130717    89.063572    81.378838    1795.3052    0.2088059   0.21099241   0.29199241   0.71179073  0.027524148  0.029041569  0.073073779    0.1296395 
  737000   -1794920.6    13550.079   -1339.3142    77.130717    89.063572    81.378838    1796.1067   0.20968637   0.21094084   0.28886172   0.70948893  0.027609307  0.028279402    0.0709128   0.12680151 
  738000   -1794966.3    13699.787    -1579.378    77.130717    89.063572    81.378838     1815.951   0.21085075   0.21063776   0.28965472   0.71114323  0.028640311  0.028211633  0.069884814   0.12673676 
  739000   -1794906.5    13523.699   -1736.2318    77.130717    89.063572    81.378838      1792.61   0.21020977   0.21129632   0.29135454   0.71286063  0.028218293  0.028564213  0.070879099   0.12766161 
  740000   -1794899.2    13558.748   -1185.3426    77.130717    89.063572    81.378838    1797.2558   0.21018587   0.21091198     0.291052   0.71214985  0.027796815  0.028421834  0.070065685   0.12628433 
  741000   -1794917.7    13629.156   -1243.4185    77.130717    89.063572    81.378838    1806.5887   0.21183072   0.21052501   0.29489389   0.71724962  0.027948016  0.028420494  0.070884364   0.12725287 
  742000   -1794990.3    13505.933   -1859.5955    77.130717    89.063572    81.378838     1790.255   0.21154556   0.21367858   0.29247936   0.71770349  0.027791189  0.028766684  0.067444792   0.12400266 
  743000   -1794869.7    13571.025   -540.58362    77.130717    89.063572    81.378838    1798.8832   0.21073849   0.21153938   0.29210339   0.71438126  0.028086634  0.028773193  0.069660255   0.12652008 
  744000   -1794962.6    13636.841    -402.5397    77.130717    89.063572    81.378838    1807.6074   0.20995387   0.21096169   0.29038425   0.71129982  0.027222395  0.028421481  0.068286467   0.12393034 
  745000   -1794961.8    13530.474   -1698.5065    77.130717    89.063572    81.378838    1793.5081   0.21038193   0.21184098   0.29250813   0.71473104  0.027293407  0.028478265  0.068688093   0.12445977 
  746000   -1794925.6    13552.141   -1155.9519    77.130717    89.063572    81.378838      1796.38   0.21053026   0.21193801   0.29319703   0.71566529   0.02713603  0.028668371  0.068712653   0.12451705 
  747000   -1795001.7    13617.634   -1452.9057    77.130717    89.063572    81.378838    1805.0614   0.21109756   0.21227437   0.29313188   0.71650381  0.027391896  0.028540481  0.069445838   0.12537821 
  748000   -1794890.9    13580.897    -1060.853    77.130717    89.063572    81.378838    1800.1918    0.2108698    0.2122093   0.29328455   0.71636365   0.02837671   0.02849596  0.069622695   0.12649536 
  749000   -1794968.6     13627.12   -1348.6168    77.130717    89.063572    81.378838    1806.3188   0.21054957   0.21344158   0.29497299   0.71896414  0.027735482  0.028617777  0.069017479   0.12537074 
  750000   -1794961.9    13570.945   -1317.6196    77.130717    89.063572    81.378838    1798.8726   0.21182737   0.21274885   0.29248477   0.71706099  0.027243951  0.028303716  0.067543203   0.12309087 
  751000   -1794910.6    13527.895   -2153.5557    77.130717    89.063572    81.378838    1793.1661   0.21056603   0.21229658   0.29355575   0.71641835  0.028081222  0.027864711  0.071444883   0.12739082 
  752000   -1794946.2    13530.722   -1584.3882    77.130717    89.063572    81.378838    1793.5409   0.21158589   0.21256161   0.29389491   0.71804241  0.028836738  0.028428833  0.068686425     0.125952 
  753000   -1794895.2     13521.37   -1573.2148    77.130717    89.063572    81.378838    1792.3012    0.2114173   0.21315359   0.29421013   0.71878102   0.02812543  0.028036017  0.069697493   0.12585894 
  754000   -1794908.4    13502.932   -1550.5782    77.130717    89.063572    81.378838    1789.8573   0.21284715   0.21266312   0.29300007   0.71851034  0.027937626  0.028745653  0.069506441   0.12618972 
  755000   -1794959.4    13640.226   -660.56556    77.130717    89.063572    81.378838     1808.056    0.2121009   0.21510294    0.2949178   0.72212164  0.028171073  0.029728973  0.071097477   0.12899752 
  756000   -1794943.5    13536.412   -956.78436    77.130717    89.063572    81.378838    1794.2951   0.21284083   0.21304089   0.29716356   0.72304528  0.028518689  0.028345409  0.069791187   0.12665529 
  757000   -1794949.6    13650.827   -1717.6432    77.130717    89.063572    81.378838    1809.4612   0.21152284   0.21354446   0.29568491   0.72075221  0.028032981  0.028865105  0.069688181   0.12658627 
  758000   -1794945.5    13554.458   -889.17947    77.130717    89.063572    81.378838    1796.6872   0.21010834   0.21355258   0.29545404   0.71911496    0.0276154   0.02916327  0.071267483   0.12804615 
  759000   -1794906.5     13635.93   -1031.9573    77.130717    89.063572    81.378838    1807.4866   0.21193922    0.2136927   0.29542696   0.72105889  0.028333719  0.028604022  0.069069538   0.12600728 
  760000   -1794910.9    13572.496   -1542.5527    77.130717    89.063572    81.378838    1799.0782   0.21086087   0.21488071   0.29844719   0.72418877  0.028539362  0.029226788  0.071454209   0.12922036 
  761000   -1794925.4     13528.82   -1287.4403    77.130717    89.063572    81.378838    1793.2888   0.21214064   0.21401477   0.29419094   0.72034635  0.028363795  0.028572355  0.069919401   0.12685555 
  762000   -1794935.6     13561.83   -1478.1418    77.130717    89.063572    81.378838    1797.6643   0.21081513   0.21529971   0.29460381   0.72071864   0.02806716  0.029716515  0.070774179   0.12855785 
  763000   -1794995.5    13649.658   -1265.0088    77.130717    89.063572    81.378838    1809.3062   0.21140248   0.21285911   0.29400827   0.71826987  0.027246042   0.02789789  0.068016322   0.12316025 
  764000   -1794948.7    13594.004   -1964.6679    77.130717    89.063572    81.378838    1801.9291   0.21090354   0.21424064   0.29572193   0.72086611  0.027475559  0.029257059  0.067014159   0.12374678 
  765000     -1794872    13542.316   -1059.2661    77.130717    89.063572    81.378838    1795.0777   0.21267069   0.21299405   0.29660763   0.72227238  0.029107167  0.029032834  0.070116646   0.12825665 
  766000   -1794906.5    13555.735   -1084.1361    77.130717    89.063572    81.378838    1796.8564   0.21227131   0.21299826   0.29475863   0.72002821  0.027797507  0.028750034  0.070062557    0.1266101 
  767000   -1794903.8    13663.727   -499.13224    77.130717    89.063572    81.378838    1811.1711   0.21063188   0.21463323   0.29762819   0.72289331  0.027273518  0.029161059  0.069488116   0.12592269 
  768000   -1794899.2    13523.747   -988.70447    77.130717    89.063572    81.378838    1792.6163   0.21185695   0.21541642    0.2972791   0.72455247  0.028388678  0.029681793  0.071695448   0.12976592 
  769000   -1794873.9    13586.408   -783.44597    77.130717    89.063572    81.378838    1800.9223   0.21181371     0.215447    0.2948913   0.72215201  0.028657089  0.029351863  0.068694397   0.12670335 
  770000   -1794923.9    13569.108   -1588.9429    77.130717    89.063572    81.378838    1798.6291   0.21193233   0.21330938   0.29806572   0.72330743  0.028150138  0.028306502  0.069610545   0.12606719 
  771000   -1794974.1     13545.91    -742.4505    77.130717    89.063572    81.378838    1795.5542   0.21207093   0.21480901   0.29533783   0.72221776  0.028039782  0.029378419  0.067831954   0.12525016 
  772000     -1794919    13701.716   -912.70326    77.130717    89.063572    81.378838    1816.2067   0.21104609   0.21470754   0.29726453   0.72301815  0.027718167  0.028553697  0.071383289   0.12765515 
  773000   -1794896.7    13665.152   -365.37557    77.130717    89.063572    81.378838    1811.3601   0.21188512   0.21475453   0.29570774   0.72234739   0.02796571  0.028465066  0.067664738   0.12409551 
  774000     -1794842    13568.139    -1142.942    77.130717    89.063572    81.378838    1798.5006   0.21208005   0.21519583   0.29798643    0.7252623  0.028303642  0.028910438  0.069419898   0.12663398 
  775000     -1794890    13552.626   -1252.6726    77.130717    89.063572    81.378838    1796.4444   0.21155193   0.21403804   0.29761263    0.7232026  0.027896799   0.02827225  0.068956753    0.1251258 
  776000   -1794899.8    13579.528   -848.63139    77.130717    89.063572    81.378838    1800.0103   0.21146097   0.21579845   0.29906051   0.72631993  0.026969536  0.029582723  0.069293191   0.12584545 
  777000   -1794928.9    13630.447   -1027.4105    77.130717    89.063572    81.378838    1806.7598   0.21363676   0.21515976   0.29729461   0.72609113  0.028498142  0.029214598  0.068095154   0.12580789 
  778000   -1794899.6    13549.796   -1243.5851    77.130717    89.063572    81.378838    1796.0692   0.21080556   0.21670511   0.29772651   0.72523718   0.02784082  0.029074192  0.069898359   0.12681337 
  779000   -1794833.3    13572.702   -709.55351    77.130717    89.063572    81.378838    1799.1054    0.2113434   0.21459747   0.30024099   0.72618185  0.027759372  0.028354739  0.068294903   0.12440901 
  780000   -1794923.1    13593.917   -1262.1144    77.130717    89.063572    81.378838    1801.9176   0.21221187   0.21607853   0.29781734   0.72610775    0.0274942  0.028598982  0.066993329   0.12308651 
  781000   -1794990.4    13594.363   -1407.1342    77.130717    89.063572    81.378838    1801.9767   0.21202328   0.21631339   0.29812469   0.72646135  0.028060402  0.029195654  0.068522819   0.12577888 
  782000   -1794876.7    13653.529   -1455.3635    77.130717    89.063572    81.378838    1809.8194   0.21297228    0.2156743   0.29905717   0.72770375  0.028116491  0.029045675  0.069687205   0.12684937 
  783000   -1794923.7    13577.119   -978.50282    77.130717    89.063572    81.378838     1799.691   0.21163464   0.21616765   0.30031255   0.72811484  0.028164127  0.029396241  0.068537767   0.12609813 
  784000   -1794875.3    13608.081   -538.52966    77.130717    89.063572    81.378838    1803.7951     0.211431   0.21625401   0.29987356   0.72755856  0.027816818   0.02824224  0.067932088   0.12399115 
  785000   -1794951.4     13581.68   -910.89691    77.130717    89.063572    81.378838    1800.2956   0.21239227   0.21487939   0.30323612   0.73050778  0.028059159  0.028578787  0.069932961   0.12657091 
  786000   -1794974.7    13471.053   -1672.8517    77.130717    89.063572    81.378838    1785.6315   0.21289445   0.21483494   0.30002042   0.72774981  0.027902559  0.029124476  0.068391956   0.12541899 
  787000   -1794868.2    13549.492    -1310.382    77.130717    89.063572    81.378838    1796.0289   0.21352736   0.21703427   0.29984599   0.73040762  0.027796805  0.028108403  0.068590589    0.1244958 
  788000   -1794865.6     13608.53   -881.55667    77.130717    89.063572    81.378838    1803.8545   0.21404339   0.21606362   0.30015245   0.73025946  0.027331614   0.02868125   0.07017962   0.12619248 
  789000   -1794877.5     13630.49   -648.60469    77.130717    89.063572    81.378838    1806.7655   0.21393128   0.21684928   0.30173621   0.73251676   0.02821487  0.028810569  0.070386024   0.12741146 
  790000   -1794962.5     13538.86   -1894.6485    77.130717    89.063572    81.378838    1794.6196   0.21416475    0.2173213   0.29942435   0.73091041  0.028727554  0.029309867  0.069479529   0.12751695 
  791000   -1794854.9    13589.357   -661.99757    77.130717    89.063572    81.378838    1801.3132   0.21450418   0.21707889     0.300064   0.73164707  0.028122617  0.028577782  0.067657705    0.1243581 
  792000   -1794908.9    13570.144   -1017.0112    77.130717    89.063572    81.378838    1798.7665   0.21217741   0.21807015   0.30190294   0.73215051  0.027509967  0.028689681  0.069641778   0.12584143 
  793000   -1794979.5     13541.09   -1702.0689    77.130717    89.063572    81.378838    1794.9152   0.21416798   0.21747279   0.30104758   0.73268836  0.027891696  0.028685321  0.069609948   0.12618696 
  794000   -1794887.6      13556.5   -1701.6676    77.130717    89.063572    81.378838    1796.9579   0.21307304   0.21632416   0.30193707   0.73133427  0.027725843  0.028260965  0.072672538   0.12865935 
  795000   -1794971.1    13593.811   -1037.8098    77.130717    89.063572    81.378838    1801.9035   0.21415272   0.21885137   0.30273233   0.73573642  0.027829063  0.029628347  0.072613296   0.13007071 
  796000   -1794868.4     13604.81   -907.46253    77.130717    89.063572    81.378838    1803.3615   0.21372919   0.21639413   0.30253766   0.73266098  0.027527662  0.028252191  0.072720263   0.12850012 
  797000     -1794807    13639.112   -451.99813    77.130717    89.063572    81.378838    1807.9083    0.2143661    0.2177143   0.30352012   0.73560051  0.027749267  0.028990387  0.074592834   0.13133249 
  798000   -1794895.4    13539.286   -1034.8082    77.130717    89.063572    81.378838    1794.6761   0.21341449    0.2168537   0.30181751    0.7320857  0.027558246  0.028269834  0.073697341   0.12952542 
  799000     -1794893    13551.625   -1220.5426    77.130717    89.063572    81.378838    1796.3117   0.21404272    0.2174883    0.3051242   0.73665522  0.027200558  0.028777544  0.073447237   0.12942534 
  800000   -1794831.7     13578.65   -572.78069    77.130717    89.063572    81.378838    1799.8939   0.21412976   0.21894433    0.3031194   0.73619349  0.028397348  0.029313554  0.073321643   0.13103254 
  801000   -1794937.1    13484.651   -1552.7215    77.130717    89.063572    81.378838    1787.4341   0.21112971   0.21839667   0.30013521   0.72966159  0.026872172   0.02793551  0.072436783   0.12724447 
  802000   -1794880.8    13560.766   -975.69245    77.130717    89.063572    81.378838    1797.5233   0.21440239    0.2171596    0.3014547    0.7330167  0.028228304  0.028963367  0.071658199   0.12884987 
  803000     -1794868    13576.002   -1210.9633    77.130717    89.063572    81.378838    1799.5429   0.21383772   0.21733073   0.30316958   0.73433803  0.027529603  0.028776587   0.07111288   0.12741907 
  804000   -1794937.2    13664.421   -876.22762    77.130717    89.063572    81.378838    1811.2631   0.21300422   0.21775354   0.30217261   0.73293037  0.027786041  0.028661401   0.06995827   0.12640571 
  805000   -1795018.5    13592.203   -1664.8167    77.130717    89.063572    81.378838    1801.6904   0.21397076   0.21963291   0.30150623    0.7351099   0.02855416  0.029077813  0.069886659   0.12751863 
  806000   -1794955.9    13542.974   -1266.0712    77.130717    89.063572    81.378838    1795.1649   0.21322689    0.2184557   0.30285138   0.73453398  0.028517728  0.029026156  0.071537042   0.12908093 
  807000   -1794841.9    13666.635   -925.10781    77.130717    89.063572    81.378838    1811.5567   0.21415059    0.2198573   0.30435833   0.73836622  0.027834784  0.029553092  0.070883063   0.12827094 
  808000   -1794896.4     13574.77   -732.13545    77.130717    89.063572    81.378838    1799.3796   0.21410633   0.21905045   0.30333992    0.7364967  0.028238607  0.029275795  0.072214388   0.12972879 
  809000   -1795002.2    13566.126   -1695.8723    77.130717    89.063572    81.378838    1798.2338   0.21409243    0.2179689   0.30283201   0.73489334  0.028703905  0.029739574  0.068846812   0.12729029 
  810000   -1794964.1    13534.454    -670.4658    77.130717    89.063572    81.378838    1794.0356     0.214679   0.21869742   0.30446739   0.73784381  0.028928076   0.02886348  0.072304496   0.13009605 
  811000     -1794917    13690.021   -1028.2371    77.130717    89.063572    81.378838    1814.6565    0.2155594   0.21869554   0.30467798   0.73893291  0.028450758  0.029470777  0.070424054   0.12834559 
  812000   -1794872.6    13567.502   -759.04006    77.130717    89.063572    81.378838    1798.4162   0.21291898   0.22002547     0.304219   0.73716345  0.028226992  0.030574645  0.071573232   0.13037487 
  813000   -1794973.7    13615.956   -1425.0009    77.130717    89.063572    81.378838     1804.839   0.21340771   0.21902689   0.30432907   0.73676367   0.02808983  0.029328001  0.071417579   0.12883541 
  814000   -1794965.3    13558.562   -1248.0291    77.130717    89.063572    81.378838    1797.2312   0.21487411   0.22028844   0.30577454   0.74093709  0.028859126  0.030509482    0.0719209   0.13128951 
  815000   -1794889.6    13629.074   -733.67957    77.130717    89.063572    81.378838    1806.5778   0.21665161   0.22126176   0.30557372   0.74348709  0.028893564  0.030203943  0.071513709   0.13061122 
  816000   -1795060.5    13514.394   -1533.7889    77.130717    89.063572    81.378838    1791.3765   0.21471456   0.22044958   0.30563818   0.74080233  0.028349941  0.030003979   0.07181841   0.13017233 
  817000   -1794989.5    13557.949   -1555.6783    77.130717    89.063572    81.378838    1797.1499   0.21652495   0.22165643   0.30468467   0.74286605  0.029389454  0.029486925  0.073705068   0.13258145 
  818000   -1794992.1    13619.581   -1290.4268    77.130717    89.063572    81.378838    1805.3194   0.21396111   0.22173946   0.30520817   0.74090874  0.027960061  0.029513155  0.073606071   0.13107929 
  819000   -1794934.2    13548.221   -1504.6363    77.130717    89.063572    81.378838    1795.8604   0.21621775   0.22207572   0.30733217   0.74562564  0.029204016  0.030589226  0.074078901   0.13387214 
  820000   -1794892.1    13511.837   -1346.5451    77.130717    89.063572    81.378838    1791.0376    0.2166983   0.22117289   0.30676186   0.74463305  0.029819409  0.029139304  0.074465077   0.13342379 
  821000   -1794938.1    13586.962    -612.4969    77.130717    89.063572    81.378838    1800.9957   0.21635541   0.22138554   0.30625797   0.74399891  0.028431209  0.029842403  0.074106516   0.13238013 
  822000   -1794876.3    13569.546   -1011.7182    77.130717    89.063572    81.378838    1798.6871   0.21564091   0.22131206   0.30803869   0.74499166  0.028377217  0.029684191  0.073880427   0.13194184 
  823000   -1794896.7    13578.159   -1192.2647    77.130717    89.063572    81.378838    1799.8288   0.21676637   0.22157181   0.30801502    0.7463532   0.02879199  0.029599006  0.072595458   0.13098645 
  824000   -1794987.2    13565.318   -1837.4692    77.130717    89.063572    81.378838    1798.1268   0.21663515   0.22084846   0.30717658   0.74466019  0.028490433  0.029622966  0.074353724   0.13246712 
  825000   -1794901.1    13641.571    -1024.507    77.130717    89.063572    81.378838    1808.2343   0.21769413   0.22126242   0.30875629   0.74771283  0.029059971  0.029989816  0.073106805   0.13215659 
  826000   -1794929.7    13565.386   -836.72896    77.130717    89.063572    81.378838    1798.1357   0.21619344   0.22260979   0.30839677   0.74720001  0.028437385  0.031068546  0.074851326   0.13435726 
  827000   -1794969.4    13544.331    -1231.279    77.130717    89.063572    81.378838    1795.3448   0.21672235   0.22051657   0.30515188    0.7423908  0.028513241  0.028944986  0.072124867   0.12958309 
  828000   -1794952.4    13519.086   -1221.7873    77.130717    89.063572    81.378838    1791.9985   0.21813344    0.2213767   0.30855722   0.74806737   0.02886952  0.030194243  0.073505413   0.13256918 
  829000   -1794982.5    13681.358    -1062.151    77.130717    89.063572    81.378838    1813.5082   0.21708074   0.22128667   0.30705799    0.7454254   0.02837529  0.028708396  0.071794042   0.12887773 
  830000     -1794927    13603.075   -1125.8099    77.130717    89.063572    81.378838    1803.1315   0.21970711   0.22157516   0.30690828   0.74819056  0.028965627  0.028693781  0.071475437   0.12913485 
  831000   -1794952.3    13642.041   -1392.5816    77.130717    89.063572    81.378838    1808.2966   0.21818973   0.21923096   0.30927137   0.74669206  0.028373373  0.029288093  0.071578343   0.12923981 
  832000   -1794929.2    13577.995   -876.26646    77.130717    89.063572    81.378838    1799.8071    0.2174888   0.22135708   0.30749253    0.7463384  0.028411328  0.029595539  0.071023429    0.1290303 
  833000     -1794856    13528.162   -1223.2303    77.130717    89.063572    81.378838    1793.2016   0.21984816    0.2202948   0.30834951   0.74849247  0.028350096  0.030074117  0.072363289    0.1307875 
  834000   -1794933.2    13612.934   -1187.2509    77.130717    89.063572    81.378838    1804.4384   0.21755027   0.22004359   0.30766687   0.74526073  0.028410362  0.028961305  0.072568169   0.12993984 
  835000   -1794801.4     13530.23   -839.01865    77.130717    89.063572    81.378838    1793.4757   0.21828354     0.222628   0.30964369   0.75055523  0.029090124  0.030820726  0.071678495   0.13158935 
  836000   -1794885.5    13592.246   -1088.7655    77.130717    89.063572    81.378838    1801.6961    0.2192285   0.21869891   0.30628589    0.7442133  0.028537871    0.0295572  0.069953479   0.12804855 
  837000   -1794958.2     13532.57   -1480.7708    77.130717    89.063572    81.378838    1793.7859   0.21836135   0.22039071   0.30994717   0.74869923  0.028539786  0.028062476  0.072584722   0.12918698 
  838000   -1794894.7     13433.38   -1710.3805    77.130717    89.063572    81.378838    1780.6379   0.21902631   0.22098904   0.30672901   0.74674436  0.028514224  0.030182747  0.072445239   0.13114221 
  839000   -1794905.3     13588.19   -1271.5038    77.130717    89.063572    81.378838    1801.1585   0.21843395   0.22198138   0.30912586   0.74954119  0.028607362  0.029305664  0.071594583   0.12950761 
  840000   -1794940.5    13557.043    -1471.179    77.130717    89.063572    81.378838    1797.0298   0.21897526   0.22229918   0.30966523   0.75093968  0.028104782  0.030302526   0.07332161   0.13172892 
  841000   -1795007.8     13582.26   -1272.8521    77.130717    89.063572    81.378838    1800.3725   0.21927203   0.22129397   0.30760785   0.74817385  0.028635328  0.029018833  0.071709838     0.129364 
  842000   -1794946.8    13574.042   -1428.3275    77.130717    89.063572    81.378838    1799.2832   0.21868347   0.22351693   0.31118662   0.75338702  0.028829574  0.030313734   0.07217864   0.13132195 
  843000   -1794978.1    13461.834   -1732.0651    77.130717    89.063572    81.378838    1784.4096   0.21830118   0.22231907   0.30836221   0.74898246  0.028988548  0.028459269  0.071293908   0.12874172 
  844000   -1794917.7    13602.678   -683.12756    77.130717    89.063572    81.378838    1803.0789   0.21907361   0.22363222   0.31027725   0.75298309  0.028400251  0.029736775  0.069933227   0.12807025 
  845000     -1794876    13543.316   -911.04819    77.130717    89.063572    81.378838    1795.2102   0.21913022   0.22374747   0.30932756   0.75220525  0.028650304  0.029763361  0.069966057   0.12837972 
  846000   -1794956.8    13611.492   -1436.1377    77.130717    89.063572    81.378838    1804.2472    0.2191434   0.22379407   0.30959642   0.75253389  0.028566646  0.029404195   0.07013048   0.12810132 
  847000   -1794948.9    13630.858   -525.90359    77.130717    89.063572    81.378838    1806.8142   0.22081268    0.2215567   0.31014918   0.75251856  0.029053272  0.029832288  0.071123324   0.13000888 
  848000   -1794952.8    13607.115   -1446.5949    77.130717    89.063572    81.378838    1803.6671   0.21977175   0.22275743   0.30846672   0.75099591  0.028004698  0.029446679  0.070002913   0.12745429 
  849000   -1794958.8    13487.961   -1513.5836    77.130717    89.063572    81.378838    1787.8728   0.21932929   0.22383934    0.3119968   0.75516542   0.02783991  0.030059634  0.071226741   0.12912629 
  850000   -1794895.4    13555.327   -996.93689    77.130717    89.063572    81.378838    1796.8024   0.21954876   0.22103987    0.3083229   0.74891153  0.028384709  0.028569601  0.068857775   0.12581208 
  851000   -1794955.2    13514.339   -1526.0393    77.130717    89.063572    81.378838    1791.3693   0.22099948   0.22291594   0.31059023   0.75450565  0.029141434  0.029216206  0.070508546   0.12886619 
  852000   -1794939.7    13576.176   -1208.0403    77.130717    89.063572    81.378838     1799.566   0.22028805   0.22225264   0.30921426   0.75175495  0.028574117   0.02988166  0.070459534   0.12891531 
  853000   -1794871.9    13527.828   -1385.0619    77.130717    89.063572    81.378838    1793.1573   0.22117426    0.2243356   0.30930068   0.75481054  0.027890823  0.029416541  0.070893802   0.12820117 
  854000   -1794942.7    13588.731   -588.75363    77.130717    89.063572    81.378838    1801.2302   0.22067774   0.22335144   0.31220751   0.75623668  0.028654092  0.030160764  0.072607238   0.13142209 
  855000   -1794944.2    13620.638   -966.54265    77.130717    89.063572    81.378838    1805.4595   0.22062424   0.22390809    0.3097082   0.75424053   0.02876889   0.02944045  0.072071308   0.13028065 
  856000     -1794885    13655.003    -573.8845    77.130717    89.063572    81.378838    1810.0148   0.22238249    0.2215055   0.31082249   0.75471047  0.028757918  0.028883413   0.07200355   0.12964488 
  857000   -1794960.2    13589.381   -1072.9232    77.130717    89.063572    81.378838    1801.3163   0.22079182   0.22300521   0.31019818   0.75399521  0.028716991  0.029907866  0.072490075   0.13111493 
  858000   -1794921.6    13633.427   -908.97264    77.130717    89.063572    81.378838    1807.1548   0.22074513   0.22247906   0.31246404   0.75568823  0.029238587  0.029253296  0.072264954   0.13075684 
  859000   -1794912.3    13523.189   -627.57128    77.130717    89.063572    81.378838    1792.5424   0.22106351    0.2221635   0.31069888   0.75392589  0.028768475  0.029596416  0.070346914    0.1287118 
  860000   -1794964.9    13576.849   -1480.6723    77.130717    89.063572    81.378838    1799.6552   0.22040866   0.22218592   0.31276691    0.7553615  0.028739293   0.02947906  0.071131796   0.12935015 
  861000     -1794922    13626.454   -674.32628    77.130717    89.063572    81.378838    1806.2305   0.22228521    0.2239592   0.31271406   0.75895846  0.028798839  0.030261323  0.069943716   0.12900388 
  862000   -1795018.3    13624.158   -1199.5822    77.130717    89.063572    81.378838    1805.9262   0.22061906   0.22395385   0.31257449   0.75714741  0.028449199  0.030479706  0.069372343   0.12830125 
  863000   -1794914.1    13633.831   -1199.1274    77.130717    89.063572    81.378838    1807.2084   0.22168066   0.22357379   0.31670972   0.76196417  0.029272332  0.029418534  0.071189172   0.12988004 
  864000   -1794995.7     13589.08    -1546.394    77.130717    89.063572    81.378838    1801.2765   0.22253603   0.22506759   0.31464815   0.76225177  0.028044601  0.029921114  0.070450219   0.12841593 
  865000   -1794968.6     13518.18   -1466.3178    77.130717    89.063572    81.378838    1791.8784   0.22178566   0.22442075   0.31691686   0.76312327  0.029362842  0.029817869  0.073147223   0.13232793 
  866000   -1794882.9    13549.367   -1361.1746    77.130717    89.063572    81.378838    1796.0124   0.22293956   0.22327668   0.31537709   0.76159333  0.028743155  0.029394457  0.072517575   0.13065519 
  867000   -1794942.3    13580.742   -787.51985    77.130717    89.063572    81.378838    1800.1712   0.22246804   0.22458755   0.31631931   0.76337491  0.027923716  0.030050712  0.074431949   0.13240638 
  868000   -1794898.9    13608.827   -1324.4448    77.130717    89.063572    81.378838     1803.894   0.22225022     0.224461   0.31618281   0.76289403  0.028790709   0.02971576   0.07258562   0.13109209 
  869000   -1794857.8    13644.231   -459.81933    77.130717    89.063572    81.378838    1808.5869   0.22071371   0.22336827   0.31619881    0.7602808  0.028505868  0.030046649  0.073482182    0.1320347 
  870000   -1794836.1    13578.743   -549.45943    77.130717    89.063572    81.378838    1799.9062   0.22268343   0.22358943   0.31616199   0.76243484  0.029009775  0.029656725   0.07330752   0.13197402 
  871000   -1794967.5    13606.327   -1049.8929    77.130717    89.063572    81.378838    1803.5626   0.22309581   0.22551966    0.3182881   0.76690357  0.028391958  0.030079781  0.073076936   0.13154867 
  872000   -1794934.2    13666.077   -862.06881    77.130717    89.063572    81.378838    1811.4827   0.22085242   0.22334274   0.31540589   0.75960105  0.028659114  0.029917329  0.072948921   0.13152536 
  873000   -1794850.6    13582.987   -748.62309    77.130717    89.063572    81.378838    1800.4688   0.22254014   0.22215418   0.31405377   0.75874809  0.028554665  0.028889756  0.071340011   0.12878443 
  874000   -1794959.2    13556.639   -1737.5861    77.130717    89.063572    81.378838    1796.9763   0.22295109   0.22419322   0.31734467   0.76448898  0.028378033  0.029715058  0.073469713    0.1315628 
  875000   -1794973.3     13650.78   -1248.8737    77.130717    89.063572    81.378838     1809.455   0.22202742   0.22593987   0.31790646   0.76587375  0.029081612  0.030073194  0.072406077   0.13156088 
  876000   -1794871.4    13578.838   -1226.2205    77.130717    89.063572    81.378838    1799.9189   0.22202838   0.22498449   0.31712642   0.76413929  0.028194053  0.029667274  0.073011097   0.13087242 
  877000   -1794995.2     13612.19   -1238.2725    77.130717    89.063572    81.378838    1804.3397   0.22278765   0.22564887    0.3170271   0.76546361   0.02891777  0.029194382  0.072130357   0.13024251 
  878000   -1794896.6    13511.327   -669.70031    77.130717    89.063572    81.378838      1790.97   0.22138056   0.22575782   0.31677665   0.76391503  0.029093469  0.029872276  0.072540434   0.13150618 
  879000   -1794893.4    13613.026   -1360.5398    77.130717    89.063572    81.378838    1804.4506    0.2215015   0.22598786   0.31420977   0.76169913  0.028414836  0.030410629  0.070821745   0.12964721 
  880000   -1794921.9    13558.421   -1251.4043    77.130717    89.063572    81.378838    1797.2125   0.22187813   0.22476483   0.31632513   0.76296809   0.02854896  0.029408875  0.074502372   0.13246021 
  881000   -1794971.4    13639.901   -1187.4135    77.130717    89.063572    81.378838     1808.013    0.2221821   0.22499791   0.31613325   0.76331325  0.029071891   0.03004328  0.074048374   0.13316354 
  882000   -1794952.5    13541.817   -1435.3644    77.130717    89.063572    81.378838    1795.0116   0.22335483   0.22539415   0.31554928   0.76429826  0.028883262   0.02924541  0.073865013   0.13199369 
  883000   -1794940.9    13539.666   -1523.5127    77.130717    89.063572    81.378838    1794.7265   0.22305439   0.22637845   0.31642851   0.76586135  0.028545908  0.029119132  0.074887228   0.13255227 
  884000   -1794938.1    13615.866   -1791.1634    77.130717    89.063572    81.378838    1804.8271   0.22299216   0.22631149   0.31781382   0.76711747  0.028279825  0.030496101  0.073646619   0.13242255 
  885000   -1794913.5    13577.243    -791.9257    77.130717    89.063572    81.378838    1799.7075   0.22407485   0.22680501   0.31926443   0.77014429  0.028468125  0.030079209  0.075211241   0.13375857 
  886000   -1794908.2    13619.615   -1312.9502    77.130717    89.063572    81.378838    1805.3239   0.22379871   0.22536948   0.31657207   0.76574025  0.028854384  0.029553961  0.073344317   0.13175266 
  887000   -1794913.6    13514.352   -1668.4642    77.130717    89.063572    81.378838     1791.371   0.22382447   0.22461605   0.31733726   0.76577778  0.029116617  0.029837969  0.075700648   0.13465523 
  888000   -1794891.8    13562.363   -766.82481    77.130717    89.063572    81.378838     1797.735   0.22324662   0.22724661   0.31712563   0.76761886  0.029388992  0.029240729  0.074610774   0.13324049 
  889000   -1794923.3     13527.73   -1622.2441    77.130717    89.063572    81.378838    1793.1443   0.22369064   0.22495375    0.3161148   0.76475919  0.028682038  0.029247678  0.073736739   0.13166646 
  890000   -1795029.4    13583.693   -1293.3718    77.130717    89.063572    81.378838    1800.5624   0.22375383   0.22491345   0.31494442    0.7636117  0.028230068  0.029754205  0.074579593   0.13256387 
  891000   -1794885.2     13488.75   -1307.1507    77.130717    89.063572    81.378838    1787.9773   0.22241651   0.22566046   0.31720393    0.7652809   0.02822616  0.029362521  0.075073866   0.13266255 
  892000   -1794948.3     13628.48   -1826.1452    77.130717    89.063572    81.378838     1806.499   0.22419889    0.2250408    0.3175004    0.7667401  0.028468312  0.029465787   0.07516772   0.13310182 
  893000     -1794895    13574.434   -790.23159    77.130717    89.063572    81.378838    1799.3351     0.224476   0.22600735   0.31811256   0.76859591  0.028968581   0.03010344  0.073941862   0.13301388 
  894000   -1794897.2    13654.713   -124.61425    77.130717    89.063572    81.378838    1809.9762   0.22432724   0.22496698   0.31718134   0.76647557  0.029055343  0.029510667  0.074509259   0.13307527 
  895000   -1794900.3    13575.397   -1191.0701    77.130717    89.063572    81.378838    1799.4628   0.22377151   0.22602843   0.31575206     0.765552   0.02908612  0.028978481  0.075250284   0.13331488 
  896000   -1794875.7    13555.986   -1433.0194    77.130717    89.063572    81.378838    1796.8897   0.22372299   0.22585803    0.3186968   0.76827783  0.028409419  0.029407404  0.073552216   0.13136904 
  897000   -1794881.2    13554.433   -990.62419    77.130717    89.063572    81.378838    1796.6839   0.22448515   0.22429679   0.31771854   0.76650049   0.02841007  0.029196234  0.075559266   0.13316557 
  898000   -1794907.7    13585.721   -914.13781    77.130717    89.063572    81.378838    1800.8311   0.22297228    0.2248001   0.31989929   0.76767167  0.029186256  0.030146877  0.076648507   0.13598164 
  899000     -1794906    13572.988   -878.58553    77.130717    89.063572    81.378838    1799.1434      0.22406   0.22610208   0.31814183    0.7683039  0.028838772  0.029656486  0.076207923   0.13470318 
  900000   -1794893.5    13616.482   -1221.0283    77.130717    89.063572    81.378838    1804.9086   0.22587426   0.22643381   0.31742615   0.76973422  0.029240986  0.029846763  0.075716844   0.13480459 
  901000   -1795021.7    13567.961   -1872.7891    77.130717    89.063572    81.378838     1798.477   0.22491141   0.22696082   0.31950874   0.77138097  0.029146057  0.029230584  0.075107601   0.13348424 
  902000   -1794838.1    13513.267   -629.56156    77.130717    89.063572    81.378838    1791.2272   0.22521929   0.22655031   0.31936817   0.77113776  0.029060708  0.029882152   0.07700485   0.13594771 
  903000   -1794847.9    13572.017   -360.44053    77.130717    89.063572    81.378838    1799.0147   0.22444582    0.2258561   0.31878957    0.7690915  0.028657437  0.029692264  0.074959669   0.13330937 
  904000   -1794931.9    13617.616   -1133.6352    77.130717    89.063572    81.378838     1805.059   0.22498073   0.22619975   0.31971245   0.77089293  0.028780765  0.029671136  0.076058172   0.13451007 
  905000   -1794918.4    13646.658   -444.85524    77.130717    89.063572    81.378838    1808.9086   0.22772875   0.22589113   0.32106002    0.7746799  0.029389412  0.029775871  0.076582628   0.13574791 
  906000     -1794915    13537.542   -916.15531    77.130717    89.063572    81.378838    1794.4449   0.22579337   0.22798885    0.3200208   0.77380302  0.028425047  0.029688924  0.074712287   0.13282626 
  907000   -1794868.4    13608.547   -776.97544    77.130717    89.063572    81.378838    1803.8569   0.22633681   0.22773279   0.32159377   0.77566336  0.028598029  0.029893383  0.077954126   0.13644554 
  908000   -1794837.6    13543.841   -649.93031    77.130717    89.063572    81.378838    1795.2798   0.22506757   0.22794255   0.32134899   0.77435912  0.028509255  0.029603983  0.076093829   0.13420707 
  909000   -1794947.1    13547.598   -1062.9024    77.130717    89.063572    81.378838    1795.7779    0.2269936   0.22723075     0.320293   0.77451735  0.028427717  0.029362772   0.07824387   0.13603436 
  910000   -1795001.1     13582.44   -1323.9322    77.130717    89.063572    81.378838    1800.3962    0.2256725   0.22819797   0.31892657   0.77279704  0.028592462  0.029163741   0.07559896   0.13335516 
  911000     -1794899    13572.213   -1007.6325    77.130717    89.063572    81.378838    1799.0407   0.22670442   0.22782478   0.32269767   0.77722686  0.028553327  0.029842811  0.076609596   0.13500573 
  912000   -1794939.7    13576.879   -1325.7208    77.130717    89.063572    81.378838    1799.6591   0.22767441   0.22834511   0.32234355   0.77836307  0.028871588  0.029887359  0.077001905   0.13576085 
  913000   -1794906.6     13560.15   -592.28566    77.130717    89.063572    81.378838    1797.4417   0.22637407   0.22867361   0.32112623   0.77617391  0.028536403  0.029622463  0.076613046   0.13477191 
  914000   -1795008.4    13638.948   -1266.2076    77.130717    89.063572    81.378838    1807.8866   0.22686972   0.22913876    0.3246481   0.78065658  0.029048644  0.029471719  0.077314346   0.13583471 
  915000   -1794919.6    13542.473    -1171.536    77.130717    89.063572    81.378838    1795.0985    0.2263685   0.23070899   0.32636186   0.78343935  0.028542318  0.030426949  0.077698111   0.13666738 
  916000   -1794889.5    13517.449   -773.31488    77.130717    89.063572    81.378838    1791.7815   0.22832938   0.22968896   0.32305899   0.78107733  0.029751203   0.02945806  0.075703788   0.13491305 
  917000   -1794904.4     13502.76   -1014.5832    77.130717    89.063572    81.378838    1789.8345   0.22818578    0.2291272   0.32291195   0.78022493  0.029646392  0.030424045  0.077761986   0.13783242 
  918000   -1795064.2    13546.261   -1863.0652    77.130717    89.063572    81.378838    1795.6006   0.22875908   0.22875484   0.32229021   0.77980413  0.030338424  0.030255129  0.075703138   0.13629669 
  919000     -1794927    13507.513   -1316.9896    77.130717    89.063572    81.378838    1790.4644   0.22833053   0.23006948   0.32276058   0.78116059  0.029543651  0.030045535  0.078172858   0.13776204 
  920000   -1794962.3    13620.994   -1303.7359    77.130717    89.063572    81.378838    1805.5067   0.22716937    0.2293858   0.32426342   0.78081859  0.028883973  0.029704303  0.076920634   0.13550891 
  921000   -1794859.6    13608.201   -695.88685    77.130717    89.063572    81.378838     1803.811   0.22772966   0.23061512   0.32360681    0.7819516  0.028796918  0.030457037  0.077017035   0.13627099 
  922000     -1794968    13543.971   -1020.1979    77.130717    89.063572    81.378838     1795.297   0.22791276   0.23077387   0.32407715   0.78276378  0.029247911  0.030258871  0.076422293   0.13592907 
  923000   -1794984.2    13596.503   -1274.8057    77.130717    89.063572    81.378838    1802.2604   0.22914394   0.22817057   0.32512545   0.78243997  0.029064026  0.029102677  0.075701039   0.13386774 
  924000   -1794856.5    13601.036   -615.10446    77.130717    89.063572    81.378838    1802.8612   0.22756022   0.23011966   0.32567199   0.78335186  0.028728135  0.029707837  0.077792364   0.13622834 
  925000   -1794900.3    13577.367   -1232.5769    77.130717    89.063572    81.378838    1799.7238   0.22845322   0.22861468   0.32491455   0.78198245  0.029508713  0.029414497  0.078967785     0.137891 
  926000   -1794863.9    13596.885   -478.92564    77.130717    89.063572    81.378838     1802.311   0.22902333   0.23035918     0.321771    0.7811535  0.028443867  0.030337276  0.076621094   0.13540224 
  927000   -1794962.7    13594.178   -1207.0108    77.130717    89.063572    81.378838    1801.9522   0.22828538   0.22885289   0.32491277   0.78205104  0.028520538  0.029578033  0.078854458   0.13695303 
  928000   -1794982.7    13644.807   -1300.4617    77.130717    89.063572    81.378838    1808.6632   0.22680397   0.22943682    0.3248649   0.78110569  0.028560901  0.029105612  0.076613843   0.13428036 
  929000   -1794904.8    13559.696   -1057.3363    77.130717    89.063572    81.378838    1797.3814   0.22930247   0.22986581   0.32236031    0.7815286  0.029488006  0.030217268  0.078370054   0.13807533 
  930000   -1794927.5    13635.754   -1362.7215    77.130717    89.063572    81.378838    1807.4632   0.22929817   0.22814905   0.32426834   0.78171556  0.028952062  0.029408241   0.07970759   0.13806789 
  931000   -1794906.3    13612.133   -1147.6301    77.130717    89.063572    81.378838    1804.3322   0.22828447   0.23119405     0.326267   0.78574552  0.028743169  0.030177565  0.077381406   0.13630214 
  932000   -1794882.2    13486.541   -1220.4323    77.130717    89.063572    81.378838    1787.6846   0.22831059   0.22996107   0.32479733   0.78306899  0.029638349  0.029721228  0.076798845   0.13615842 
  933000   -1794865.8    13701.226   -1042.8404    77.130717    89.063572    81.378838    1816.1417   0.22895309   0.23056881   0.32407997   0.78360188    0.0291156   0.03042165   0.07850146   0.13803871 
  934000   -1794973.6    13542.338   -1501.0556    77.130717    89.063572    81.378838    1795.0806   0.22837756   0.23137132   0.32542392    0.7851728  0.029010871  0.029882195  0.076097574   0.13499064 
  935000   -1794875.9    13555.689   -615.42047    77.130717    89.063572    81.378838    1796.8503   0.22939522   0.23061409   0.32445856   0.78446786   0.02931742  0.029934902   0.07440145   0.13365377 
  936000   -1794874.8    13498.505   -392.75813    77.130717    89.063572    81.378838    1789.2704   0.22922368   0.23047318   0.32685118   0.78654803  0.028794632  0.030241107  0.076397597   0.13543334 
  937000   -1794899.9    13596.349   -1189.9846    77.130717    89.063572    81.378838      1802.24   0.22995876   0.23156018   0.32492989   0.78644883  0.028855318  0.030212122  0.074785275   0.13385271 
  938000   -1794924.1     13541.22   -1552.2502    77.130717    89.063572    81.378838    1794.9325   0.23057645   0.23115466   0.32646932   0.78820043  0.028749717  0.029945552  0.075653587   0.13434886 
  939000   -1794893.2    13569.289   -751.21278    77.130717    89.063572    81.378838    1798.6531   0.22879598   0.23021942   0.32674378   0.78575917  0.028768523  0.029635765  0.076860879   0.13526517 
  940000   -1794887.2    13607.604    13.245398    77.130717    89.063572    81.378838    1803.7318   0.22885733    0.2329587   0.32625709   0.78807312  0.028428417  0.030268198  0.076059706   0.13475632 
  941000   -1794965.5    13541.346   -1054.9985    77.130717    89.063572    81.378838    1794.9492    0.2302785   0.23180949   0.32709592   0.78918391  0.029934622  0.029755265  0.074753896   0.13444378 
  942000   -1794825.9    13583.155   -621.07166    77.130717    89.063572    81.378838    1800.4911   0.22771663   0.23270182   0.32616242   0.78658087  0.028741064  0.029280485   0.07663143   0.13465298 
  943000   -1794917.7    13620.211   -676.38164    77.130717    89.063572    81.378838     1805.403    0.2288019   0.23420735   0.32726232   0.79027157  0.028014394   0.03055093  0.076350156   0.13491548 
  944000   -1794970.9    13527.825   -1054.7342    77.130717    89.063572    81.378838    1793.1569    0.2291803   0.23354982   0.32923646   0.79196657  0.029102518  0.029505213  0.077888923   0.13649665 
  945000   -1794972.2    13584.903   -1304.5521    77.130717    89.063572    81.378838    1800.7228   0.22827309    0.2324317   0.32840459   0.78910938  0.028736109  0.029209081  0.075720404   0.13366559 
  946000   -1794873.2     13535.83   -454.05588    77.130717    89.063572    81.378838    1794.2179   0.22887701   0.23224041   0.32937268    0.7904901  0.028320579  0.029937907  0.077370056   0.13562854 
  947000     -1794928    13573.456   -1121.0867    77.130717    89.063572    81.378838    1799.2054   0.22891923   0.23228953   0.33038177   0.79159052  0.028509241  0.029972742  0.077934688   0.13641667 
  948000   -1794926.9     13681.96    -1005.679    77.130717    89.063572    81.378838    1813.5879   0.22924931   0.23365644   0.32989662   0.79280236  0.028151602  0.029119022  0.077022234   0.13429286 
  949000   -1794918.4    13525.595   -1459.2038    77.130717    89.063572    81.378838    1792.8613   0.22923637   0.23249019   0.33108366   0.79281023  0.028568317  0.029175193  0.076277626   0.13402114 
  950000   -1794994.8    13516.166   -1893.4466    77.130717    89.063572    81.378838    1791.6115   0.23109423   0.23389885   0.32758967   0.79258275  0.028905099  0.030156995  0.075777134   0.13483923 
  951000   -1794916.6    13509.429   -1375.1784    77.130717    89.063572    81.378838    1790.7185   0.22952134   0.23316565    0.3296141   0.79230109  0.028598104  0.029517564  0.076963571   0.13507924 
  952000   -1794859.7     13560.63   -1066.8167    77.130717    89.063572    81.378838    1797.5054   0.23001256   0.23401891   0.33093831   0.79496978  0.028347332   0.03025088  0.079083498   0.13768171 
  953000   -1795000.6    13599.578   -1516.2097    77.130717    89.063572    81.378838     1802.668   0.23028339   0.23382363   0.33138318   0.79549019  0.028600398  0.030647072  0.079115055   0.13836253 
  954000   -1794915.9     13566.76   -1050.1367    77.130717    89.063572    81.378838    1798.3178   0.23051797   0.23386607   0.33078078   0.79516482  0.028829814  0.029644579  0.079152799   0.13762719 
  955000   -1794972.6    13651.062   -1414.1517    77.130717    89.063572    81.378838    1809.4923    0.2321487   0.23466511   0.33117771   0.79799153  0.028896623  0.030324094  0.078293452   0.13751417 
  956000     -1794889    13592.071   -437.55942    77.130717    89.063572    81.378838    1801.6729   0.22985422   0.23392925   0.32959086   0.79337433  0.028554726  0.030095185   0.07934741   0.13799732 
  957000   -1794957.4    13607.363   -798.96578    77.130717    89.063572    81.378838    1803.6999   0.22968655   0.23322275   0.33024626   0.79315556  0.028979318  0.030038232  0.076859103   0.13587665 
  958000   -1794890.6    13481.878   -309.09476    77.130717    89.063572    81.378838    1787.0665    0.2315798   0.23324342   0.33193875   0.79676197  0.028444681  0.029809125  0.080449796    0.1387036 
  959000     -1794966     13547.45   -1646.2905    77.130717    89.063572    81.378838    1795.7583   0.23111538   0.23319752   0.33073881   0.79505171  0.028642031  0.029570405  0.077312483   0.13552492 
  960000   -1794860.7    13576.449   -1095.9409    77.130717    89.063572    81.378838    1799.6022   0.23179682   0.23634419   0.33415547   0.80229648  0.029018662  0.030408052  0.077598194   0.13702491 
  961000   -1794958.2     13534.66    -1148.963    77.130717    89.063572    81.378838    1794.0629   0.23230978   0.23353809   0.33096677   0.79681464  0.028881115  0.029568666  0.076188691   0.13463847 
  962000   -1794943.8    13534.939   -888.15963    77.130717    89.063572    81.378838    1794.0999   0.23109002   0.23521692   0.33429918   0.80060611  0.029180418  0.029803663  0.077826032   0.13681011 
  963000   -1794880.5    13530.825   -527.02953    77.130717    89.063572    81.378838    1793.5545   0.23142876   0.23633629   0.33304052   0.80080557   0.02867557  0.030589488  0.075333952   0.13459901 
  964000   -1794880.3    13542.581    -567.4359    77.130717    89.063572    81.378838    1795.1128   0.23128993   0.23263009   0.33415043   0.79807045  0.028657413  0.028967565  0.077084412   0.13470939 
  965000   -1794938.4    13591.056   -665.88494    77.130717    89.063572    81.378838    1801.5384    0.2318412   0.23431592   0.33417681   0.80033393  0.028839565  0.029124514  0.076700811   0.13466489 
  966000   -1794884.7    13571.344   -758.18947    77.130717    89.063572    81.378838    1798.9254   0.23148474   0.23498667   0.33327021   0.79974163  0.028556128  0.030618609  0.076973391   0.13614813 
  967000   -1794967.6    13619.316   -1000.5991    77.130717    89.063572    81.378838    1805.2843   0.23209042   0.23455524   0.33538927   0.80203492  0.028498845  0.029808084  0.079624918   0.13793185 
  968000   -1794916.2    13586.668   -1356.6772    77.130717    89.063572    81.378838    1800.9567   0.23235035   0.23386311    0.3329618   0.79917526  0.028438428  0.029285576  0.078122277   0.13584628 
  969000   -1794909.9    13483.842   -1348.5732    77.130717    89.063572    81.378838    1787.3268   0.23276597   0.23461503   0.33260286   0.79998387  0.028786659  0.029737734  0.077278183   0.13580258 
  970000   -1794882.7    13641.081   -1090.0755    77.130717    89.063572    81.378838    1808.1693   0.23280374   0.23592045   0.33402228   0.80274647  0.029146763  0.029575864  0.077651499   0.13637413 
  971000   -1794896.8     13657.12   -787.46242    77.130717    89.063572    81.378838    1810.2954    0.2342981   0.23740549   0.33650089   0.80820449  0.029406695  0.029721505  0.076630322   0.13575852 
  972000   -1794979.2    13592.775   -1205.4639    77.130717    89.063572    81.378838    1801.7662   0.23537596   0.23578748   0.33330862   0.80447206  0.029807098  0.030036152  0.076710516   0.13655377 
  973000   -1794995.1    13555.213   -1346.3015    77.130717    89.063572    81.378838    1796.7872   0.23451162   0.23767635   0.33442931   0.80661729  0.028594171  0.030340627  0.078388256   0.13732305 
  974000   -1794883.8    13618.748   -1202.5619    77.130717    89.063572    81.378838     1805.209   0.23425296   0.23544749   0.33629978   0.80600023  0.028902313  0.029643379  0.078287957   0.13683365 
  975000   -1794932.9    13477.108   -1453.5019    77.130717    89.063572    81.378838    1786.4342   0.23356472   0.23529176   0.33501901   0.80387549  0.028582209  0.029399361  0.077572954   0.13555452 
  976000   -1794896.3     13567.99   -804.92239    77.130717    89.063572    81.378838    1798.4809   0.23327011   0.23589183   0.33636636    0.8055283  0.028505112  0.030063862   0.07867667   0.13724564 
  977000   -1794953.6    13634.003   -925.17219    77.130717    89.063572    81.378838    1807.2311   0.23343036   0.23469865   0.33561373   0.80374274  0.028703693  0.029594823  0.077918409   0.13621692 
  978000   -1794815.5    13628.781   -232.28346    77.130717    89.063572    81.378838    1806.5389   0.23403057   0.23676382   0.33717426   0.80796865  0.029245417  0.029892035  0.079275912   0.13841336 
  979000   -1794923.1    13592.737   -957.35381    77.130717    89.063572    81.378838    1801.7612   0.23369345   0.23790373   0.33730213    0.8088993  0.028830232  0.031105608  0.079395921   0.13933176 
  980000   -1794974.9    13660.115   -1184.6299    77.130717    89.063572    81.378838    1810.6924   0.23358804   0.23633647   0.33319282   0.80311733  0.028550096  0.029412124  0.078701149   0.13666337 
  981000   -1794903.6    13584.752   -625.59125    77.130717    89.063572    81.378838    1800.7027    0.2339921   0.23694425   0.33697077   0.80790712  0.028487963  0.029955004  0.079747021   0.13818999 
  982000   -1794920.7    13668.212   -785.58774    77.130717    89.063572    81.378838    1811.7656   0.23319927   0.23460562   0.33468087   0.80248576  0.028061749   0.02909752  0.076127637   0.13328691 
  983000     -1794866    13594.255   -1172.2275    77.130717    89.063572    81.378838    1801.9624   0.23419891   0.23587286   0.33499803   0.80506979  0.028291501  0.030296436  0.077353218   0.13594115 
  984000   -1794867.9    13488.659   -837.47738    77.130717    89.063572    81.378838    1787.9653   0.23451412   0.23573047   0.33814597   0.80839057  0.028652623  0.028902851  0.077648299   0.13520377 
  985000   -1794893.6    13572.039   -1011.8407    77.130717    89.063572    81.378838    1799.0176    0.2347332   0.23568765   0.33549391   0.80591476  0.028865095  0.030127929  0.079402318   0.13839534 
  986000   -1794977.2    13609.214   -1370.5788    77.130717    89.063572    81.378838    1803.9453   0.23498205   0.23505024   0.33478004   0.80481232  0.029070536  0.030211875  0.075793581   0.13507599 
  987000   -1794924.2    13566.996     -1027.88    77.130717    89.063572    81.378838    1798.3491   0.23343482    0.2376993   0.33931107   0.81044519   0.02928541  0.029851519  0.078948614   0.13808554 
  988000   -1794878.4    13525.065   -433.78563    77.130717    89.063572    81.378838    1792.7911   0.23426467    0.2369811   0.33901615   0.81026192  0.029331761  0.029973792  0.079388789   0.13869434 
  989000   -1794898.3    13645.273   -1130.3803    77.130717    89.063572    81.378838    1808.7249   0.23464705   0.23656158   0.33974256   0.81095119  0.028674877  0.029789902  0.080049554   0.13851433 
  990000   -1794935.8    13641.441   -611.96318    77.130717    89.063572    81.378838    1808.2171   0.23449564    0.2372595   0.33797392   0.80972906  0.029045088  0.029915542  0.078630247   0.13759088 
  991000   -1794938.7    13616.669   -1788.1375    77.130717    89.063572    81.378838    1804.9335   0.23406454   0.23757872   0.33834813   0.80999139  0.029439627   0.02969575  0.079504595   0.13863997 
  992000   -1794905.8    13590.637   -987.64596    77.130717    89.063572    81.378838    1801.4828   0.23471939   0.23876551   0.34050351   0.81398842   0.02875438  0.029999926  0.078855191    0.1376095 
  993000   -1795006.8    13513.314   -1523.3905    77.130717    89.063572    81.378838    1791.2335   0.23311897   0.23800477    0.3409982   0.81212194  0.028455923  0.029418201  0.077611517   0.13548564 
  994000   -1794934.4    13652.442   -1024.6154    77.130717    89.063572    81.378838    1809.6752   0.23409201   0.23709826   0.34174781   0.81293809  0.028556234  0.030237103  0.080136713   0.13893005 
  995000   -1794924.5    13504.597   -1212.4056    77.130717    89.063572    81.378838    1790.0779   0.23424168   0.23865358   0.33839136   0.81128663  0.029264944  0.030605041  0.077878881   0.13774887 
  996000   -1794957.8    13556.377   -987.15469    77.130717    89.063572    81.378838    1796.9415   0.23420756   0.23795829   0.34029865    0.8124645  0.028540239  0.030016652  0.081213849   0.13977074 
  997000   -1794878.6    13636.003   -640.02221    77.130717    89.063572    81.378838    1807.4962    0.2340877   0.23775115   0.34234319   0.81418204  0.028796183  0.029506814  0.080028009   0.13833101 
  998000   -1794934.3    13573.748   -1013.1668    77.130717    89.063572    81.378838    1799.2442   0.23343145   0.23641167   0.33894865   0.80879177  0.028843355  0.029454505  0.078687078   0.13698494 
  999000   -1794815.5    13629.768    -37.80172    77.130717    89.063572    81.378838    1806.6698   0.23537608    0.2380296   0.34157065   0.81497633   0.02875373  0.030279975  0.080735297     0.139769 
 1000000     -1794948    13489.114   -1341.9086    77.130717    89.063572    81.378838    1788.0256   0.23430436   0.23735766   0.34293015   0.81459217  0.028050037  0.028607188  0.079140907   0.13579813 
Loop time of 135352 on 15 procs for 1000000 steps with 58365 atoms

Pair  time (%) = 87146.9 (64.3853)
Kspce time (%) = 41420.1 (30.6017)
Neigh time (%) = 1967.71 (1.45377)
Comm  time (%) = 3237.92 (2.39222)
Outpt time (%) = 4.27136 (0.00315573)
Other time (%) = 1575.33 (1.16387)

Nlocal:    3891 ave 3926 max 3840 min
Histogram: 3 0 1 0 2 0 0 2 5 2
Nghost:    18536.5 ave 18642 max 18410 min
Histogram: 3 2 1 0 0 1 1 2 1 4
Neighs:    1.48801e+06 ave 1.52718e+06 max 1.44027e+06 min
Histogram: 2 0 1 2 0 3 2 1 2 2

Total # of neighbors = 22320196
Ave neighs/atom = 382.424
Neighbor list builds = 31683
Dangerous builds = 0
