

variable      mytemp equal  1800

# -------------------- FORCE FIELDS ----------------------
pair_style buck/coul/long 10.0 10.0

read_data	NPT_relaxed_1800.data
  orthogonal box = (0.0982245 0.113421 0.103634) to (77.2028 89.1468 81.4549)
  1 by 7 by 1 MPI processor grid
  reading atoms ...
  58275 atoms
  reading velocities ...
  58275 velocities

pair_coeff    * * 1e-30 1e-30 0.0
pair_coeff    1 2 1204.18 0.3165   0.0
pair_coeff    1 1 9547.96 0.21916  32.0

kspace_style    pppm 0.0001

## Define group
group oxygen type 1
34965 atoms in group oxygen
group chromium type 2
23310 atoms in group chromium


## --------------------- NVT  --------------------
compute allmsd all displace/atom

#dump          2 all custom 25000  dump/dump id type xu yu zu c_allmsd[1] c_allmsd[2] c_allmsd[3] c_allmsd[4]
#dump          1 all xyz 25000 xyz/all.xyz
#dump_modify   1 element O Cr



compute   Omsd oxygen msd com yes
compute   Crmsd chromium msd com yes
variable  OMSDX equal "c_Omsd[1]"
variable  OMSDY equal "c_Omsd[2]"
variable  OMSDZ equal "c_Omsd[3]"
variable  OMSDAll equal "c_Omsd[4]"

variable  CrMSDX equal "c_Crmsd[1]"
variable  CrMSDY equal "c_Crmsd[2]"
variable  CrMSDZ equal "c_Crmsd[3]"
variable  CrMSDAll equal "c_Crmsd[4]"

thermo          1000
thermo_style    custom step pe ke press lx ly lz temp c_Omsd[1]  c_Omsd[2]  c_Omsd[3]  c_Omsd[4]  c_Crmsd[1]  c_Crmsd[2]  c_Crmsd[3]  c_Crmsd[4]


fix          1 all print 100 "${OMSDX}   ${OMSDY}   ${OMSDZ}  ${OMSDAll}  ${CrMSDX}   ${CrMSDY}   ${CrMSDZ}  ${CrMSDAll}" file MSD1800.data screen no
fix          3 all nvt temp ${mytemp} ${mytemp} 0.01
fix          3 all nvt temp 1800 ${mytemp} 0.01
fix          3 all nvt temp 1800 1800 0.01

run      1000000
PPPM initialization ...
  G vector (1/distance) = 0.308879
  grid = 72 80 75
  stencil order = 5
  estimated absolute RMS force accuracy = 0.00178753
  estimated relative force accuracy = 0.000124137
  using double precision FFTs
  3d grid and FFT values/proc = 123082 64800
Memory usage per processor = 22.5308 Mbytes
Step PotEng KinEng Press Lx Ly Lz Temp Omsd[1] Omsd[2] Omsd[3] Omsd[4] Crmsd[1] Crmsd[2] Crmsd[3] Crmsd[4] 
       0   -1792135.6    13574.009   -146.22313    77.104551    89.033358    81.351231    1802.0576 5.070802e-29 5.0559295e-29  5.10459e-29 1.5231321e-28 4.5466761e-28 1.1950346e-29 5.0941937e-29 5.175599e-28 
    1000   -1792151.3    13509.136    92.629802    77.104551    89.033358    81.351231    1793.4452  0.035097999  0.033977126  0.046606969   0.11568209  0.028184585   0.02766986  0.037287533  0.093141978 
    2000   -1792159.8    13529.461    16.002043    77.104551    89.033358    81.351231    1796.1435  0.034503663  0.034565671  0.043957385   0.11302672  0.027423045  0.027534998  0.034368856  0.089326899 
    3000   -1792215.8    13576.867     69.09531    77.104551    89.033358    81.351231     1802.437  0.035144346  0.033341578  0.044463522   0.11294945    0.0278318  0.026586615  0.035637314  0.090055729 
    4000   -1792159.8    13550.454   -69.070861    77.104551    89.033358    81.351231    1798.9305  0.035762394  0.034990737  0.045524911   0.11627804  0.028646794  0.028050287  0.036248046  0.092945128 
    5000   -1792091.4    13531.002    383.56856    77.104551    89.033358    81.351231     1796.348  0.035426829     0.036458   0.04556857    0.1174534  0.027482674  0.028760544  0.035679049  0.091922268 
    6000   -1792216.8    13487.166   -110.16065    77.104551    89.033358    81.351231    1790.5285  0.036727429  0.035313404  0.047534572   0.11957541  0.029274948     0.027851  0.037151499  0.094277447 
    7000   -1792279.2    13539.547    129.28206    77.104551    89.033358    81.351231    1797.4825  0.035744398  0.034658247  0.045302699   0.11570534  0.027626059  0.026737617  0.035526719  0.089890395 
    8000   -1792108.3    13597.992    491.36878    77.104551    89.033358    81.351231    1805.2415  0.036540778  0.035984877  0.045153265   0.11767892  0.028348848  0.028643634  0.035769152  0.092761634 
    9000   -1792153.5    13594.808    650.91825    77.104551    89.033358    81.351231    1804.8188  0.035925498  0.035937927  0.045805203   0.11766863  0.027905979  0.027743094  0.036310105  0.091959177 
   10000   -1792274.2    13577.029    71.203879    77.104551    89.033358    81.351231    1802.4586    0.0355605  0.036438467  0.044152385   0.11615135  0.026946386  0.027514281  0.034427575  0.088888242 
   11000   -1792204.2    13585.398    65.798846    77.104551    89.033358    81.351231    1803.5695  0.037836134   0.03617375  0.045942361   0.11995225  0.029235686  0.028099864  0.035808956  0.093144506 
   12000   -1792146.2    13621.916    127.98678    77.104551    89.033358    81.351231    1808.4176  0.035407674  0.037377066  0.043955099   0.11673984  0.027505275  0.028798732  0.034417127  0.090721135 
   13000   -1792160.1      13686.1    920.61495    77.104551    89.033358    81.351231    1816.9385  0.037535335  0.036284855   0.04535547   0.11917566   0.02882355  0.027469566  0.035774269  0.092067385 
   14000   -1792195.4    13670.273    247.73148    77.104551    89.033358    81.351231    1814.8373  0.036756011  0.035486647  0.044971923   0.11721458  0.027831206  0.027115802  0.035068278  0.090015285 
   15000   -1792215.4    13570.057    322.32383    77.104551    89.033358    81.351231     1801.533  0.036529361   0.03681001  0.045262411   0.11860178  0.028196597  0.028254817  0.035510648  0.091962062 
   16000   -1792148.2    13537.784    -27.93787    77.104551    89.033358    81.351231    1797.2484  0.036999076   0.03595303  0.046320879   0.11927298  0.028531718   0.02729717  0.036799626  0.092628514 
   17000   -1792185.9    13527.024    450.01656    77.104551    89.033358    81.351231    1795.8199  0.035837833   0.03666638  0.045015678   0.11751989   0.02720321  0.028193794  0.035469025  0.090866029 
   18000   -1792057.9    13543.631    638.79833    77.104551    89.033358    81.351231    1798.0246  0.037324167  0.037002421  0.045899306   0.12022589  0.028775321  0.028984495   0.03598876  0.093748576 
   19000     -1792241    13653.996   -337.77034    77.104551    89.033358    81.351231    1812.6765  0.035943337  0.036741352  0.044867825   0.11755251  0.027409861  0.028336688  0.034992775  0.090739324 
   20000   -1792238.3    13577.894    78.622405    77.104551    89.033358    81.351231    1802.5733  0.036999247  0.036233779  0.044396371    0.1176294  0.028029876   0.02768008   0.03480363  0.090513586 
   21000   -1792099.6    13541.823     1005.344    77.104551    89.033358    81.351231    1797.7847  0.037471814  0.036832345  0.046263678   0.12056784  0.028736604   0.02770372  0.036020256   0.09246058 
   22000   -1792155.3    13614.195    647.25784    77.104551    89.033358    81.351231    1807.3926  0.036902553  0.037056186  0.043717324   0.11767606  0.027621731  0.028204826  0.034799189  0.090625745 
   23000   -1792165.7    13558.063     91.50465    77.104551    89.033358    81.351231    1799.9406  0.038045905  0.036635625   0.04535996   0.12004149  0.028350424  0.027571013  0.036011987  0.091933425 
   24000     -1792126    13584.647    738.70104    77.104551    89.033358    81.351231    1803.4699  0.038032407  0.036847187  0.045528689   0.12040828  0.028348034  0.028011745  0.035855348  0.092215128 
   25000   -1792210.5    13563.431    72.630861    77.104551    89.033358    81.351231    1800.6532  0.037916738  0.037194069  0.045844805   0.12095561  0.028221737  0.027985422  0.035070219  0.091277378 
   26000   -1792196.5    13536.505   -4.2309325    77.104551    89.033358    81.351231    1797.0786  0.037225379  0.037462552  0.048035259   0.12272319  0.027903131  0.028221783  0.037655782  0.093780697 
   27000   -1792215.4    13510.679    148.59664    77.104551    89.033358    81.351231      1793.65  0.036540376  0.036920737  0.046044772   0.11950589  0.027210385  0.028004968  0.036215351  0.091430704 
   28000   -1792233.5    13565.133     -34.4573    77.104551    89.033358    81.351231    1800.8792  0.036954451  0.036514183  0.046261146   0.11972978  0.027559468  0.027446556  0.037010222  0.092016247 
   29000   -1792212.4    13576.416    56.197318    77.104551    89.033358    81.351231    1802.3771  0.037457916  0.036929855   0.04427903    0.1186668  0.028246542  0.027608218  0.034158586  0.090013347 
   30000   -1792179.7    13611.615    33.791489    77.104551    89.033358    81.351231      1807.05  0.038525603  0.037146697  0.044956974   0.12062927  0.028859651  0.028710423  0.035203769  0.092773843 
   31000   -1792152.6    13606.279    674.81091    77.104551    89.033358    81.351231    1806.3417  0.036910556   0.03717208   0.04565135   0.11973399  0.028375405  0.028836441  0.036178741  0.093390586 
   32000   -1792178.2    13590.582    104.66124    77.104551    89.033358    81.351231    1804.2578  0.038591076  0.037704233  0.044381456   0.12067676  0.029045893  0.029268031  0.034518564  0.092832488 
   33000   -1792179.1    13549.004    56.285308    77.104551    89.033358    81.351231     1798.738  0.037746452  0.036667669  0.045921624   0.12033574  0.028510521  0.028365945  0.036103037  0.092979502 
   34000   -1792174.2    13513.515    12.052267    77.104551    89.033358    81.351231    1794.0265  0.037299688  0.037323742  0.044928154   0.11955158  0.028139665  0.028613044  0.035022302  0.091775012 
   35000   -1792208.4    13616.729    328.14742    77.104551    89.033358    81.351231     1807.729  0.038386618  0.037793947  0.046873525   0.12305409  0.029217704  0.029117375  0.036514049  0.094849128 
   36000   -1792214.5    13645.271    -86.63149    77.104551    89.033358    81.351231    1811.5181  0.036981103  0.036833921  0.045119415   0.11893444  0.027504438  0.028210947  0.034767026  0.090482411 
   37000   -1792173.6    13600.415   -18.684444    77.104551    89.033358    81.351231    1805.5631  0.037259491  0.037541539   0.04472745   0.11952848  0.028085258  0.028612401  0.035443761  0.092141419 
   38000   -1792143.9    13535.233    603.28408    77.104551    89.033358    81.351231    1796.9097   0.03759264  0.038882423  0.046700198   0.12317526  0.028096957  0.029534559  0.036719729  0.094351246 
   39000     -1792288    13606.572   -473.26529    77.104551    89.033358    81.351231    1806.3806  0.037148203  0.037425162  0.045068885   0.11964225  0.027668466  0.028320768  0.035260722  0.091249956 
   40000   -1792244.3    13631.149   -806.13937    77.104551    89.033358    81.351231    1809.6433  0.038387848  0.037160534  0.046709677   0.12225806  0.028385338   0.02799865  0.037040337  0.093424324 
   41000   -1792148.1    13596.216    547.45173    77.104551    89.033358    81.351231    1805.0058  0.037761021  0.037811198  0.046254953   0.12182717  0.028231801  0.028493159  0.036003288  0.092728248 
   42000   -1792227.9    13535.401   -559.23457    77.104551    89.033358    81.351231    1796.9321  0.038854405  0.037604063  0.045118908   0.12157738   0.02952598   0.02921077  0.035344042  0.094080792 
   43000   -1792223.9    13599.638   -218.21492    77.104551    89.033358    81.351231      1805.46  0.037952526  0.037729806  0.046149882   0.12183221  0.027649663  0.028777977  0.035734179  0.092161819 
   44000   -1792189.9    13550.417    382.68901    77.104551    89.033358    81.351231    1798.9255  0.037096915  0.037829548  0.044571377   0.11949784  0.028147354  0.029584156   0.03472507   0.09245658 
   45000   -1792219.9    13581.127   -350.28035    77.104551    89.033358    81.351231    1803.0026  0.037354191  0.038651213   0.04532123   0.12132663  0.029064943  0.029948447   0.03554976   0.09456315 
   46000   -1792150.4    13505.099   -15.462519    77.104551    89.033358    81.351231    1792.9092  0.037548278  0.037823031  0.045025313   0.12039662  0.029479845  0.028870293  0.035430823  0.093780961 
   47000   -1792148.9    13444.793    25.246575    77.104551    89.033358    81.351231    1784.9032  0.038177476  0.037364645  0.045748981    0.1212911  0.029412699  0.028343164  0.035726018  0.093481881 
   48000   -1792123.8    13597.246    234.58637    77.104551    89.033358    81.351231    1805.1425  0.037328048  0.038674716  0.045844505   0.12184727  0.028963519  0.029665235  0.037230663  0.095859417 
   49000   -1792215.1    13591.702    81.623133    77.104551    89.033358    81.351231    1804.4065  0.036495514  0.039357673  0.044985072   0.12083826  0.028409694  0.030634459  0.035678612  0.094722765 
   50000   -1792146.1    13517.188    4.3493556    77.104551    89.033358    81.351231    1794.5142  0.037888575  0.037955997  0.046753792   0.12259836  0.029339524  0.028926318  0.037135598  0.095401441 
   51000   -1792122.4    13631.388    124.09363    77.104551    89.033358    81.351231    1809.6751  0.037548008  0.038595694  0.045946763   0.12209047  0.029388994  0.029803186  0.035887663  0.095079843 
   52000   -1792221.7    13551.972    113.45261    77.104551    89.033358    81.351231     1799.132  0.038473577  0.038280634  0.045225088    0.1219793  0.029163793  0.028566142  0.035466754   0.09319669 
   53000   -1792245.1    13575.131    -225.6107    77.104551    89.033358    81.351231    1802.2065  0.038101864  0.038088463  0.046412599   0.12260293  0.028818769  0.029194856  0.035962877  0.093976501 
   54000     -1792203    13646.012    -251.9818    77.104551    89.033358    81.351231    1811.6166  0.038423468  0.038595028  0.046006391   0.12302489  0.029342673  0.029418181  0.036419871  0.095180725 
   55000   -1792173.5    13545.874    398.67505    77.104551    89.033358    81.351231    1798.3224  0.039156465  0.039961948  0.047327398   0.12644581  0.029941507  0.030426468  0.036890374   0.09725835 
   56000   -1792239.7    13523.505    -622.8511    77.104551    89.033358    81.351231    1795.3528  0.037321351   0.03929895  0.047236171   0.12385647  0.029211379  0.029263324  0.036584494  0.095059197 
   57000   -1792269.1    13536.084    -927.7759    77.104551    89.033358    81.351231    1797.0228  0.038215183  0.038553857  0.045328037   0.12209708  0.029276899  0.028962644  0.035785988  0.094025531 
   58000   -1792198.3    13541.979   -71.842692    77.104551    89.033358    81.351231    1797.8054  0.037834235  0.039441306  0.045818246   0.12309379  0.028249567  0.030013372  0.036237398  0.094500337 
   59000   -1792260.8    13529.058   -361.50204    77.104551    89.033358    81.351231      1796.09  0.037498242   0.03880616  0.045806676   0.12211108   0.02882134  0.029818602  0.036640689  0.095280631 
   60000   -1792239.3    13493.563   -356.12427    77.104551    89.033358    81.351231    1791.3778  0.038055388  0.038514097  0.047052358   0.12362184  0.029798951  0.028722094  0.037197197  0.095718242 
   61000     -1792254    13573.414    -778.9389    77.104551    89.033358    81.351231    1801.9786  0.037005114   0.03877044  0.045534236   0.12130979  0.028745648  0.029470699   0.03528216  0.093498506 
   62000     -1792231    13604.571   -59.993181    77.104551    89.033358    81.351231    1806.1149  0.036925168  0.039122222  0.046825205   0.12287259  0.028262132  0.030441247  0.036830825  0.095534203 
   63000   -1792187.7    13651.152    603.94793    77.104551    89.033358    81.351231     1812.299  0.038180395  0.038813537  0.046640307   0.12363424  0.029202396  0.029739781  0.037197373   0.09613955 
   64000   -1792270.1    13574.191   -571.82266    77.104551    89.033358    81.351231    1802.0818   0.03716406  0.038571227  0.044886295   0.12062158  0.028128579  0.029420121  0.034815138  0.092363838 
   65000   -1792223.2    13533.405   -144.59268    77.104551    89.033358    81.351231    1796.6671  0.038076983   0.03801018  0.046638511   0.12272567  0.029342487  0.029495736  0.037070483  0.095908707 
   66000   -1792223.7    13615.782   -518.16812    77.104551    89.033358    81.351231    1807.6033  0.038402129  0.038019592  0.046199002   0.12262072  0.029502867  0.030203709  0.036476218  0.096182794 
   67000   -1792195.9     13577.02   -128.49374    77.104551    89.033358    81.351231    1802.4573   0.03812241  0.038262179  0.046457951   0.12284254  0.029202111  0.029266721  0.035708958   0.09417779 
   68000   -1792160.9    13504.238   -2.1526574    77.104551    89.033358    81.351231    1792.7949  0.038130393  0.038797008  0.046994036   0.12392144  0.029612339  0.029288872  0.036179354  0.095080565 
   69000   -1792067.1    13511.533    360.02445    77.104551    89.033358    81.351231    1793.7634  0.038495252  0.039140242  0.046019473   0.12365497  0.029394184  0.029848734  0.036545562   0.09578848 
   70000   -1792314.5    13488.029   -723.88957    77.104551    89.033358    81.351231    1790.6431  0.036793676  0.038584418   0.04646099   0.12183908   0.02911309  0.029326196  0.037548108  0.095987394 
   71000   -1792256.4    13574.794    164.55239    77.104551    89.033358    81.351231    1802.1618  0.037891285  0.038132244  0.045881745   0.12190527  0.028930629  0.029540392  0.036183068   0.09465409 
   72000   -1792319.2    13581.054   -607.43696    77.104551    89.033358    81.351231    1802.9929   0.03856571  0.038781765  0.045027726    0.1223752  0.029735612  0.030297141  0.035795549  0.095828303 
   73000   -1792166.1    13538.612    238.95402    77.104551    89.033358    81.351231    1797.3584  0.038615291  0.037597577  0.046514878   0.12272775  0.029498744  0.028368721  0.037128298  0.094995763 
   74000     -1792109    13495.401    296.82057    77.104551    89.033358    81.351231    1791.6217  0.038488325  0.037664462  0.045872241   0.12202503  0.029361208  0.028364576  0.036158888  0.093884672 
   75000   -1792089.3    13581.773    489.65998    77.104551    89.033358    81.351231    1803.0884  0.039480541  0.038736987  0.046143639   0.12436117  0.029728592  0.029918213  0.036400236   0.09604704 
   76000   -1792170.2    13592.223    603.94733    77.104551    89.033358    81.351231    1804.4756  0.037946832  0.037564553  0.045517156   0.12102854  0.028365467  0.029571206   0.03617629  0.094112963 
   77000   -1792220.6    13623.575   -304.09986    77.104551    89.033358    81.351231    1808.6379  0.038894076  0.038311742  0.046847042   0.12405286  0.029419541  0.029702432  0.036574006  0.095695978 
   78000   -1792237.4    13627.117   -157.01623    77.104551    89.033358    81.351231    1809.1081  0.038317946  0.038633005  0.045676576   0.12262753  0.029334169  0.029722871  0.035757319  0.094814358 
   79000   -1792201.6     13567.83    19.821544    77.104551    89.033358    81.351231    1801.2373    0.0377122  0.038666878   0.04671753   0.12309661  0.028456278  0.029888705  0.036347297  0.094692281 
   80000   -1792198.8    13590.799   -29.834681    77.104551    89.033358    81.351231    1804.2865  0.038249119  0.038012877  0.047048167   0.12331016  0.028715781  0.029627527  0.036272664  0.094615972 
   81000   -1792195.1    13564.277   -220.63447    77.104551    89.033358    81.351231    1800.7656  0.037433334  0.037699138  0.045853596   0.12098607  0.029100292  0.029241314  0.036195009  0.094536614 
   82000     -1792138    13544.509    267.33119    77.104551    89.033358    81.351231    1798.1413  0.038351904  0.040179099  0.047224968   0.12575597  0.028762241  0.031193347  0.037131576  0.097087164 
   83000   -1792186.2     13657.41    -413.9954    77.104551    89.033358    81.351231    1813.1298  0.037335175  0.039020842  0.046192138   0.12254816  0.027892983  0.030107938  0.036476782  0.094477703 
   84000   -1792150.2    13545.272   -123.44162    77.104551    89.033358    81.351231    1798.2426  0.038135917  0.039084368  0.045750816    0.1229711  0.028571114  0.029776011  0.035422133  0.093769258 
   85000   -1792255.2     13581.09   -411.05615    77.104551    89.033358    81.351231    1802.9976  0.037957632  0.037709465  0.046831681   0.12249878  0.029130196  0.029357584  0.036793078  0.095280857 
   86000   -1792255.9    13633.443   -443.60598    77.104551    89.033358    81.351231    1809.9479  0.037980169  0.037834363  0.047790057   0.12360459  0.028785242  0.029508574  0.037078043  0.095371859 
   87000   -1792158.7    13583.262    1186.6067    77.104551    89.033358    81.351231     1803.286   0.03877969  0.038114691  0.046145392   0.12303977  0.029827529  0.030015904  0.036495995  0.096339429 
   88000   -1792190.5     13493.53    -288.8007    77.104551    89.033358    81.351231    1791.3734  0.037035909  0.038021883  0.047207426   0.12226522  0.028256792  0.028702806  0.037293081   0.09425268 
   89000   -1792214.1    13568.618   -194.33433    77.104551    89.033358    81.351231    1801.3419  0.037931422  0.038311214  0.047804032   0.12404667  0.028835545  0.029630085  0.036878489   0.09534412 
   90000   -1792168.5    13590.498    311.19634    77.104551    89.033358    81.351231    1804.2466  0.039491876  0.038325081  0.045957026   0.12377398   0.03000259  0.029725256  0.035593831  0.095321677 
   91000   -1792166.6    13586.198    447.22708    77.104551    89.033358    81.351231    1803.6758  0.038267163   0.03821514  0.046754805   0.12323711  0.028875658  0.029003426  0.035750571  0.093629656 
   92000   -1792180.9    13589.991    293.56117    77.104551    89.033358    81.351231    1804.1793  0.038866023  0.039273742  0.047812198   0.12595196  0.028839248  0.030022536  0.037869774  0.096731557 
   93000   -1792150.5     13590.55    350.59295    77.104551    89.033358    81.351231    1804.2536   0.03830224  0.038518525  0.046509768   0.12333053  0.029085651  0.029218889  0.036979071  0.095283611 
   94000     -1792101    13621.733     428.5618    77.104551    89.033358    81.351231    1808.3933  0.038644703  0.039705254  0.047091056   0.12544101  0.029290824  0.030962107  0.036948309   0.09720124 
   95000   -1792141.9    13582.712    414.90978    77.104551    89.033358    81.351231     1803.213  0.038359932  0.038759467  0.047525528   0.12464493  0.029456182  0.029551493  0.036771115   0.09577879 
   96000   -1792142.2    13539.386    663.91156    77.104551    89.033358    81.351231    1797.4611  0.038522089  0.039304275  0.046331618   0.12415798  0.029059113  0.029759054  0.036995552   0.09581372 
   97000   -1792201.1    13610.923   -48.542273    77.104551    89.033358    81.351231    1806.9582   0.03907605  0.038328985  0.047174734   0.12457977   0.03014071  0.028747196  0.037210113   0.09609802 
   98000   -1792264.6    13575.108    179.69358    77.104551    89.033358    81.351231    1802.2035  0.037950961   0.03886889  0.045238151     0.122058  0.029557585   0.02906662  0.035603051  0.094227257 
   99000   -1792239.2    13667.035    48.953305    77.104551    89.033358    81.351231    1814.4075  0.038926816  0.039113487  0.046068486   0.12410879  0.029691132  0.029306448  0.036215623  0.095213203 
  100000   -1792139.6    13643.692    523.94422    77.104551    89.033358    81.351231    1811.3086  0.038808181  0.040393513  0.046846718   0.12604841  0.029971845  0.030639731  0.036757719  0.097369295 
  101000   -1792226.3    13538.489    584.78327    77.104551    89.033358    81.351231     1797.342  0.038247827  0.038874654  0.046384644   0.12350712  0.029190523  0.029986245  0.036487923  0.095664691 
  102000   -1792179.3    13603.817    235.76395    77.104551    89.033358    81.351231    1806.0148  0.039803802   0.03960201   0.04719606   0.12660187  0.030015629  0.030393333  0.036550505  0.096959467 
  103000   -1792196.1    13604.048    256.67412    77.104551    89.033358    81.351231    1806.0455  0.037917954   0.03953728  0.047603087   0.12505832  0.028706578  0.030556706  0.037759609  0.097022893 
  104000   -1792209.6    13512.938    475.17287    77.104551    89.033358    81.351231    1793.9499  0.038402079  0.038222893  0.047696694   0.12432167  0.029098163  0.029322497  0.038004545  0.096425205 
  105000   -1792127.7    13651.114    1244.7426    77.104551    89.033358    81.351231    1812.2939  0.038507644  0.038526411  0.046507816   0.12354187  0.029220976  0.029872591  0.036622494  0.095716061 
  106000   -1792187.4    13510.272    -164.5429    77.104551    89.033358    81.351231    1793.5959  0.038854509  0.039162801  0.048738854   0.12675616  0.029319052   0.02965402  0.038481537  0.097454609 
  107000   -1792086.5     13562.92    556.38112    77.104551    89.033358    81.351231    1800.5854  0.038745322  0.039430763   0.04822045   0.12639653   0.02956227  0.030307455  0.038119097  0.097988822 
  108000   -1792179.9    13539.662   -400.19984    77.104551    89.033358    81.351231    1797.4977  0.038981571  0.038868428  0.048901834   0.12675183  0.029622549  0.030030221  0.039161217  0.098813988 
  109000   -1792224.2    13561.619   -186.35239    77.104551    89.033358    81.351231    1800.4128  0.039613406  0.039098933  0.046990702   0.12570304   0.02989894  0.029579192   0.03638709  0.095865221 
  110000   -1792159.3     13549.11   -238.60952    77.104551    89.033358    81.351231     1798.752   0.03869516  0.038935958  0.046425972   0.12405709  0.029303376  0.029449411  0.036208823   0.09496161 
  111000   -1792186.8    13603.428   -248.92815    77.104551    89.033358    81.351231    1805.9632  0.038558857  0.038396864  0.046613611   0.12356933  0.029110199   0.02974885  0.036548502   0.09540755 
  112000   -1792264.1     13545.09    -47.49559    77.104551    89.033358    81.351231    1798.2184  0.039099173  0.039575459  0.046617798   0.12529243  0.030223775  0.030469875  0.037199702  0.097893352 
  113000   -1792261.9    13648.971   -61.139407    77.104551    89.033358    81.351231    1812.0094  0.038240228  0.038726267  0.046352008    0.1233185  0.029281339  0.029847987  0.036753124  0.095882449 
  114000   -1792219.9    13571.221    372.26276    77.104551    89.033358    81.351231    1801.6874  0.039092979  0.038734987  0.046287864   0.12411583  0.029088203  0.030002971  0.036376938  0.095468112 
  115000     -1792173    13581.367    232.51989    77.104551    89.033358    81.351231    1803.0344  0.038451109  0.038434343  0.046734469   0.12361992   0.02909008  0.029790464  0.036059826   0.09494037 
  116000   -1792131.7    13582.073    341.63086    77.104551    89.033358    81.351231    1803.1282  0.038439488  0.037993673  0.046623321   0.12305648   0.02941781  0.029314266  0.036574842  0.095306918 
  117000   -1792215.1    13598.546   -69.383041    77.104551    89.033358    81.351231    1805.3151  0.038748586  0.038103075  0.046588184   0.12343985  0.029751053   0.02946492  0.036297633  0.095513606 
  118000   -1792207.7     13613.23   -69.636445    77.104551    89.033358    81.351231    1807.2645  0.037604093  0.038754289  0.046763451   0.12312183  0.029277247  0.029131716  0.036628322  0.095037285 
  119000   -1792255.1    13546.666   -226.32766    77.104551    89.033358    81.351231    1798.4276  0.038566592  0.039622639  0.047456788   0.12564602   0.02870914  0.029984477  0.037186764   0.09588038 
  120000   -1792213.1    13574.553   -351.28062    77.104551    89.033358    81.351231    1802.1298  0.038221285  0.038788045  0.046928626   0.12393796  0.029082174   0.02950438  0.036479701  0.095066256 
  121000   -1792172.1    13520.442     197.4175    77.104551    89.033358    81.351231    1794.9462  0.038603675  0.039221466  0.046734366   0.12455951  0.029196026  0.029739222  0.036540353  0.095475601 
  122000   -1792163.2    13563.371    115.65306    77.104551    89.033358    81.351231    1800.6453  0.039006963  0.039793533  0.047859512   0.12666001  0.029115325  0.030228005   0.03757978   0.09692311 
  123000   -1792207.3    13537.717    151.75514    77.104551    89.033358    81.351231    1797.2395  0.038725504  0.040637537  0.047017543   0.12638058  0.029246055   0.03074658  0.036495559  0.096488194 
  124000   -1792180.8    13538.267    -289.6531    77.104551    89.033358    81.351231    1797.3126  0.039512897  0.039866734  0.046569145   0.12594878  0.030160061  0.029542277  0.035594747  0.095297085 
  125000   -1792215.8    13617.159   -273.61001    77.104551    89.033358    81.351231    1807.7861  0.038852437  0.040616706  0.047241743   0.12671089  0.029284675  0.030592176   0.03652144  0.096398291 
  126000   -1792216.9    13603.079    131.36355    77.104551    89.033358    81.351231    1805.9168  0.039007533  0.040197742   0.04619811   0.12540339  0.028827104  0.030607659  0.035775755  0.095210518 
  127000   -1792143.5    13568.857    513.44109    77.104551    89.033358    81.351231    1801.3736   0.03973213   0.04100044  0.046285235    0.1270178  0.029578951  0.030418384  0.035618315   0.09561565 
  128000   -1792098.2    13575.365    506.76204    77.104551    89.033358    81.351231    1802.2377  0.039409626  0.040056646  0.046906985   0.12637326  0.029445758  0.029734772  0.036453419  0.095633949 
  129000   -1792216.1    13522.445    10.207275    77.104551    89.033358    81.351231    1795.2121  0.038926205  0.039433647  0.047206277   0.12556613  0.028511894  0.029807033   0.03647556  0.094794487 
  130000   -1792226.5    13539.744    242.33225    77.104551    89.033358    81.351231    1797.5086  0.039363588  0.040267566  0.047241521   0.12687268  0.029738579  0.030148757  0.037069254  0.096956589 
  131000   -1792177.1    13503.249    70.459004    77.104551    89.033358    81.351231    1792.6636   0.03826299  0.040440625  0.048423407   0.12712702  0.028294916  0.029441834  0.037052708  0.094789458 
  132000   -1792194.1    13534.536   -673.38847    77.104551    89.033358    81.351231    1796.8172  0.037877404   0.03991316  0.046342624   0.12413319  0.028846289  0.029934207  0.036254033   0.09503453 
  133000   -1792205.7    13619.644   -159.18973    77.104551    89.033358    81.351231     1808.116  0.039125229  0.040305947  0.047151932   0.12658311  0.029386686  0.029940255  0.037144477  0.096471418 
  134000   -1792199.4    13593.337   -331.28364    77.104551    89.033358    81.351231    1804.6235  0.039493832  0.039868118  0.047224688   0.12658664  0.029277563  0.029950719  0.036560977   0.09578926 
  135000   -1792234.7    13605.031   -189.12815    77.104551    89.033358    81.351231    1806.1759  0.038889945  0.039659552   0.04713477   0.12568427  0.029694173  0.029019366  0.036335645  0.095049185 
  136000   -1792254.8    13611.316   -135.41419    77.104551    89.033358    81.351231    1807.0104  0.039796661  0.039940749  0.047669808   0.12740722  0.030000352  0.029963167  0.037279478  0.097242996 
  137000   -1792122.1    13485.656    219.01007    77.104551    89.033358    81.351231     1790.328  0.038908635  0.039666693  0.046923306   0.12549863  0.029190255  0.029510678  0.037156682  0.095857615 
  138000   -1792115.2    13607.582    510.81442    77.104551    89.033358    81.351231    1806.5147  0.038511296   0.03971367  0.047452815   0.12567778  0.029247014  0.029964679  0.037464831  0.096676523 
  139000   -1792154.9    13526.847    367.99654    77.104551    89.033358    81.351231    1795.7965   0.03949557  0.040579913  0.045988352   0.12606384  0.030466056  0.030834458  0.036574462  0.097874975 
  140000   -1792241.8    13610.623   -33.767449    77.104551    89.033358    81.351231    1806.9184  0.038403027  0.039946061  0.046758027   0.12510712  0.029068756  0.030576022  0.036901779  0.096546557 
  141000     -1792234    13558.052    49.551426    77.104551    89.033358    81.351231    1799.9392  0.039665511  0.038974143  0.047806016   0.12644567  0.029937548  0.029490116  0.038073531  0.097501196 
  142000   -1792156.9    13578.496   -350.52536    77.104551    89.033358    81.351231    1802.6533  0.040129423  0.039480412  0.046482716   0.12609255  0.030300222  0.030422488  0.036451805  0.097174515 
  143000   -1792217.6    13590.168   -30.396415    77.104551    89.033358    81.351231    1804.2028  0.038674898  0.039631375  0.045554961   0.12386124   0.02893207     0.030558  0.035619268  0.095109337 
  144000   -1792172.3    13558.743   -273.14136    77.104551    89.033358    81.351231    1800.0309  0.039209793   0.03855708   0.04802914   0.12579601  0.029521905  0.029651985  0.037021677  0.096195567 
  145000   -1792215.9    13541.447   -1049.7102    77.104551    89.033358    81.351231    1797.7347  0.038904751  0.038604304  0.046502083   0.12401114  0.029322529  0.029550019   0.03661497  0.095487519 
  146000   -1792246.2    13627.086    194.33392    77.104551    89.033358    81.351231     1809.104  0.038980534  0.039102753  0.046980171   0.12506346  0.029312437  0.030429624  0.037513193  0.097255254 
  147000   -1792199.6    13642.053   -99.182245    77.104551    89.033358    81.351231    1811.0909  0.040103099  0.038470085  0.046477991   0.12505117  0.030721256  0.029828514  0.036543067  0.097092838 
  148000   -1792262.5    13518.168     112.0078    77.104551    89.033358    81.351231    1794.6443  0.039398309  0.037903382  0.046740284   0.12404198  0.029828515  0.029944276  0.036570971  0.096343762 
  149000   -1792208.5    13587.446    69.549954    77.104551    89.033358    81.351231    1803.8414  0.039516881   0.03953519   0.04669722   0.12574929  0.030146397  0.030925693  0.037279369  0.098351459 
  150000   -1792147.4    13539.869    294.49227    77.104551    89.033358    81.351231    1797.5253  0.038921652   0.03882568  0.047021307   0.12476864  0.029475071  0.029904332  0.037140576   0.09651998 
  151000   -1792222.7    13508.863   -406.99429    77.104551    89.033358    81.351231    1793.4089  0.039759672  0.039490706  0.047004323    0.1262547  0.030334019  0.030517907  0.037505442  0.098357368 
  152000     -1792283    13557.874   -253.04842    77.104551    89.033358    81.351231    1799.9156  0.039400283   0.03919971   0.04817437   0.12677436  0.029810227    0.0300027  0.038229486  0.098042414 
  153000     -1792182      13584.9   -720.10905    77.104551    89.033358    81.351231    1803.5034  0.039502969   0.03922882  0.047808114    0.1265399  0.029923477  0.029960146   0.03799301  0.097876634 
  154000   -1792236.8    13574.509   -294.68665    77.104551    89.033358    81.351231    1802.1239  0.040257309    0.0387151  0.046516497   0.12548891  0.031553677  0.029601488  0.036743045   0.09789821 
  155000     -1792253    13557.667   -50.846314    77.104551    89.033358    81.351231     1799.888  0.038593848  0.038927023  0.047282001   0.12480287  0.029953909  0.030096151  0.037823651  0.097873711 
  156000   -1792203.9    13544.464   -185.29074    77.104551    89.033358    81.351231    1798.1352  0.038265605  0.039762489  0.046762481   0.12479058  0.029831934  0.030105721  0.037363748  0.097301402 
  157000   -1792316.6    13526.187   -905.90048    77.104551    89.033358    81.351231    1795.7089  0.037913791  0.038645355   0.04596127   0.12252042  0.029660037  0.028999145  0.036787299  0.095446482 
  158000   -1792310.1    13630.997   -680.00276    77.104551    89.033358    81.351231    1809.6232  0.039142908  0.039889102  0.047759367   0.12679138  0.030186157   0.03020112  0.037656297  0.098043574 
  159000   -1792217.9    13537.929   -78.144286    77.104551    89.033358    81.351231    1797.2677  0.039239351  0.039983488  0.047313057    0.1265359  0.029816487  0.030331845  0.036980244  0.097128576 
  160000   -1792215.6    13601.887   -263.16385    77.104551    89.033358    81.351231    1805.7586  0.039228457  0.040158045  0.048073804   0.12746031  0.029783929  0.030127309  0.037410877  0.097322115 
  161000   -1792205.6     13534.55    8.2470129    77.104551    89.033358    81.351231    1796.8191   0.03908642  0.039561554  0.046524392   0.12517237  0.030873537  0.029868166  0.036954559  0.097696262 
  162000   -1792145.9    13528.219    260.58308    77.104551    89.033358    81.351231    1795.9786  0.038230132  0.039624299  0.047000451   0.12485488  0.029523639  0.029702989   0.03732703  0.096553658 
  163000   -1792261.8    13530.799   -108.27414    77.104551    89.033358    81.351231    1796.3211  0.039848983  0.039934996   0.04606922    0.1258532  0.029844076  0.030272131  0.037189132   0.09730534 
  164000   -1792144.1      13547.6   -116.64258    77.104551    89.033358    81.351231    1798.5516  0.039375966  0.039591352  0.046457099   0.12542442  0.029840742  0.029805299  0.036699016  0.096345057 
  165000     -1792195    13569.931    -195.7457    77.104551    89.033358    81.351231    1801.5162  0.039018044  0.040722804  0.048276337   0.12801718  0.029571859  0.031106711  0.038134288  0.098812858 
  166000   -1792221.2    13489.772   -351.69823    77.104551    89.033358    81.351231    1790.8744  0.038929757  0.040837034  0.046996434   0.12676322  0.029711338  0.031113918  0.037018114   0.09784337 
  167000   -1792186.1    13549.666   -197.59236    77.104551    89.033358    81.351231    1798.8259  0.039952514  0.039633401  0.046539539   0.12612545   0.03072462   0.02946611  0.036994256  0.097184985 
  168000   -1792203.8    13576.481    161.35968    77.104551    89.033358    81.351231    1802.3857  0.038649436  0.040792433  0.047858898   0.12730077   0.02934903  0.029989842  0.038050352  0.097389224 
  169000   -1792187.8    13488.028   -280.31064    77.104551    89.033358    81.351231    1790.6429  0.038380023  0.040516955  0.045804857   0.12470184  0.029526636  0.029981017  0.036974474  0.096482127 
  170000     -1792199    13501.231   -442.57711    77.104551    89.033358    81.351231    1792.3957  0.040300698  0.040668174  0.047134117   0.12810299  0.030841494  0.030729442    0.0372776  0.098848535 
  171000   -1792111.7    13579.116    167.12804    77.104551    89.033358    81.351231    1802.7356  0.039872853  0.041070254  0.049418404   0.13036151  0.030434519  0.031018825  0.039374434   0.10082778 
  172000   -1792137.9    13584.138   -332.56835    77.104551    89.033358    81.351231    1803.4023  0.039844951  0.040804744  0.047865745   0.12851544  0.030503529  0.031244539   0.03746715  0.099215218 
  173000   -1792236.3    13527.231   -98.195351    77.104551    89.033358    81.351231    1795.8475   0.04071903   0.04143655  0.046914567   0.12907015  0.031245551  0.031102026  0.037044611  0.099392187 
  174000   -1792295.5    13524.797    -387.6102    77.104551    89.033358    81.351231    1795.5243  0.039438223  0.039962143  0.047779528   0.12717989  0.029988215  0.029739659  0.037878288  0.097606162 
  175000   -1792099.4    13531.853    307.07948    77.104551    89.033358    81.351231    1796.4611  0.040517198   0.03876208  0.047618018    0.1268973  0.030890559  0.029788907  0.037747055  0.098426521 
  176000   -1792195.8    13554.768   -18.261689    77.104551    89.033358    81.351231    1799.5032   0.04037798  0.039763318  0.046103623   0.12624492  0.030560741  0.030156062  0.036643997    0.0973608 
  177000   -1792267.5     13542.09   -800.51848    77.104551    89.033358    81.351231      1797.82  0.039373637  0.039527216  0.046569943    0.1254708   0.02943732  0.030167156  0.037321863   0.09692634 
  178000   -1792152.5     13566.69    259.52275    77.104551    89.033358    81.351231    1801.0859  0.040468724   0.03980393  0.049054915   0.12932757  0.031190038  0.030297692  0.038821468    0.1003092 
  179000   -1792298.6    13563.448   -348.14394    77.104551    89.033358    81.351231    1800.6555  0.039133281  0.040256365  0.046446489   0.12583613  0.029514245  0.031038427  0.037159249  0.097711921 
  180000   -1792196.5    13541.671    -93.15445    77.104551    89.033358    81.351231    1797.7645  0.040371159  0.039275071  0.048352208   0.12799844  0.030395997  0.030392251  0.038639528  0.099427777 
  181000   -1792183.5    13550.282   -145.50852    77.104551    89.033358    81.351231    1798.9076  0.039221692  0.040236704  0.047455004    0.1269134   0.02946362  0.030562963  0.037388387   0.09741497 
  182000   -1792260.8    13575.498   -27.202321    77.104551    89.033358    81.351231    1802.2553  0.039399657  0.040402849  0.046583922   0.12638643    0.0296525  0.030660769  0.036635127  0.096948396 
  183000   -1792231.7    13551.429   -992.36303    77.104551    89.033358    81.351231    1799.0599  0.039076253  0.039832372  0.047820838   0.12672946  0.029856924   0.03014951  0.038682768  0.098689201 
  184000     -1792139    13565.394    -108.1264    77.104551    89.033358    81.351231    1800.9139  0.039659989  0.039990422  0.047475765   0.12712618   0.03020326  0.030220561  0.037343671  0.097767493 
  185000   -1792142.2    13603.852   -169.74446    77.104551    89.033358    81.351231    1806.0195  0.041014952  0.039733158  0.047402625   0.12815074  0.031633789  0.030001554  0.037371863  0.099007206 
  186000   -1792248.4     13575.67   -135.75623    77.104551    89.033358    81.351231    1802.2781  0.038567293   0.04023706  0.047001566   0.12580592  0.029287837   0.03050113  0.037579447  0.097368415 
  187000   -1792326.1    13595.596   -637.75933    77.104551    89.033358    81.351231    1804.9235  0.039300082   0.03993296  0.047686872   0.12691991  0.029973425  0.030110425  0.037691181   0.09777503 
  188000   -1792128.2    13617.703    310.16257    77.104551    89.033358    81.351231    1807.8583  0.040749968  0.040356202  0.048001084   0.12910725  0.030715419  0.030572269  0.038242188  0.099529876 
  189000   -1792236.9    13518.624   -9.1418648    77.104551    89.033358    81.351231    1794.7048  0.040303885   0.04023876  0.046321701   0.12686435  0.030291041  0.030570449  0.037317087  0.098178577 
  190000   -1792175.5    13521.561    371.72035    77.104551    89.033358    81.351231    1795.0947  0.039346771  0.040473899  0.047927218   0.12774789  0.029743301  0.030996219  0.039027167  0.099766687 
  191000   -1792188.7    13583.594   -44.529227    77.104551    89.033358    81.351231      1803.33   0.04046757  0.040220136  0.047991703   0.12867941  0.029872455  0.031099306  0.037718277  0.098690037 
  192000   -1792214.8     13599.75   -26.414526    77.104551    89.033358    81.351231     1805.475  0.040726041  0.039218123  0.047433279   0.12737744  0.029593936  0.029595607  0.037428934  0.096618477 
  193000     -1792152    13543.599   -141.14768    77.104551    89.033358    81.351231    1798.0204   0.04097922  0.040322883  0.048836387   0.13013849  0.029676303  0.030774453  0.038718143  0.099168899 
  194000   -1792140.7    13555.035    688.25968    77.104551    89.033358    81.351231    1799.5386  0.041938389  0.039716976  0.047829338    0.1294847  0.031072667  0.030077559  0.036475824   0.09762605 
  195000   -1792186.7    13559.145     44.62286    77.104551    89.033358    81.351231    1800.0843  0.041027019   0.03940092   0.04773186    0.1281598  0.029121823  0.029681616  0.037761085  0.096564523 
  196000   -1792230.3     13509.34    16.450094    77.104551    89.033358    81.351231    1793.4723  0.040558202  0.039980855  0.048170481   0.12870954  0.029862892  0.030413877  0.038026866  0.098303635 
  197000   -1792246.4     13535.59   -1034.2327    77.104551    89.033358    81.351231    1796.9571  0.040665766   0.04022262  0.047838436   0.12872682  0.030371591  0.029714996  0.037661616  0.097748203 
  198000   -1792184.5    13584.973   -268.06892    77.104551    89.033358    81.351231    1803.5132  0.040594621  0.039613235   0.04851518   0.12872304  0.030162909  0.029661883  0.038731878   0.09855667 
  199000   -1792165.8      13619.8    86.521993    77.104551    89.033358    81.351231    1808.1367  0.040524599  0.040344143  0.047061927   0.12793067  0.029803931  0.030197418   0.03752239  0.097523739 
  200000   -1792218.4    13642.432    124.00989    77.104551    89.033358    81.351231    1811.1412  0.040283503  0.039832064  0.048306741   0.12842231  0.030165475  0.030259194  0.038275818  0.098700487 
  201000     -1792272    13516.311    -812.0819    77.104551    89.033358    81.351231    1794.3978  0.040628222  0.040278894  0.047276674   0.12818379  0.030131208  0.030352332  0.037715947  0.098199486 
  202000   -1792234.1     13564.42    5.8093116    77.104551    89.033358    81.351231    1800.7846  0.040309288   0.04004548  0.047345577   0.12770034   0.03005167   0.03077013  0.037675336  0.098497136 
  203000   -1792204.8    13527.339   -452.31599    77.104551    89.033358    81.351231    1795.8618  0.041257263  0.040467874  0.047615226   0.12934036  0.031046916  0.031130861  0.037738712   0.09991649 
  204000     -1792232    13563.131   -245.07565    77.104551    89.033358    81.351231    1800.6134  0.039408492  0.039473111  0.048189136   0.12707074  0.030069576  0.029794403  0.037332349  0.097196328 
  205000     -1792215      13484.7   -402.47792    77.104551    89.033358    81.351231    1790.2012  0.040904529  0.040489641  0.050080988   0.13147516  0.030638909  0.031482179  0.040494387   0.10261547 
  206000   -1792194.5    13487.521    384.22898    77.104551    89.033358    81.351231    1790.5756  0.039777039  0.040198081  0.047780035   0.12775515  0.029986366  0.030645624   0.03831323   0.09894522 
  207000   -1792216.5    13584.003    35.748336    77.104551    89.033358    81.351231    1803.3844  0.039694922  0.039700031  0.047781272   0.12717622  0.029498113  0.030376796  0.038109569  0.097984478 
  208000   -1792217.8    13637.881    174.65768    77.104551    89.033358    81.351231    1810.5371  0.041661394  0.040033455   0.04842902   0.13012387  0.030847534  0.030493119  0.038701186   0.10004184 
  209000   -1792223.7    13522.398   -178.36957    77.104551    89.033358    81.351231    1795.2058  0.040190742  0.040283261   0.04747397   0.12794797  0.029792971  0.030283462  0.037033053  0.097109485 
  210000   -1792235.9    13463.982   -359.60478    77.104551    89.033358    81.351231    1787.4506  0.039561952  0.039294356  0.047376982   0.12623329  0.029387387  0.030081812  0.037861969  0.097331168 
  211000   -1792193.6    13542.303   -60.386608    77.104551    89.033358    81.351231    1797.8484  0.039924447  0.039989234  0.048519068   0.12843275  0.029644602   0.03016928   0.03843976  0.098253642 
  212000   -1792246.3    13529.655   -126.88574    77.104551    89.033358    81.351231    1796.1693  0.039600815  0.040505777   0.04779276   0.12789935  0.029158674  0.030641478  0.037236825  0.097036977 
  213000   -1792240.8    13479.482   -122.39465    77.104551    89.033358    81.351231    1789.5084  0.041316098  0.038969604  0.048367953   0.12865366  0.030171838  0.029840247  0.039026841  0.099038926 
  214000   -1792223.6      13561.8   -167.04029    77.104551    89.033358    81.351231    1800.4367  0.040196683  0.039108666  0.049167476   0.12847283  0.029337382  0.029647449  0.038202755  0.097187586 
  215000   -1792204.1    13538.746   -153.19905    77.104551    89.033358    81.351231    1797.3761    0.0410248  0.040446401   0.04871224   0.13018344  0.030414491  0.030416114  0.039117417  0.099948022 
  216000   -1792152.8    13489.742   -156.43312    77.104551    89.033358    81.351231    1790.8705  0.041576327  0.040014292  0.046975374   0.12856599  0.030937371  0.030429378  0.037072784  0.098439533 
  217000   -1792240.2    13573.066    152.28958    77.104551    89.033358    81.351231    1801.9324   0.04067039  0.039314431  0.049167013   0.12915183  0.029978223  0.029698652  0.038813616  0.098490492 
  218000   -1792230.3    13610.253   -256.87882    77.104551    89.033358    81.351231    1806.8692  0.041517458  0.040672142  0.047431701    0.1296213  0.031443198  0.031602242  0.038013268   0.10105871 
  219000     -1792185    13521.536    39.790894    77.104551    89.033358    81.351231    1795.0914  0.039657433  0.041061044  0.048099013   0.12881749  0.029441964  0.031434098   0.03784607  0.098722132 
  220000   -1792182.6    13595.245    292.06879    77.104551    89.033358    81.351231    1804.8769  0.041091156  0.040993233  0.049513408    0.1315978  0.031034529  0.031324416  0.039464241   0.10182319 
  221000   -1792135.6    13589.207   -88.465321    77.104551    89.033358    81.351231    1804.0753   0.04105588  0.040782154  0.048385515   0.13022355  0.030160501  0.030246332  0.038248185  0.098655018 
  222000   -1792197.2    13643.372    199.23269    77.104551    89.033358    81.351231    1811.2661  0.040497523  0.040975416  0.048340966   0.12981391  0.029690096  0.031005302  0.038217895  0.098913292 
  223000   -1792258.9    13542.959   -592.70655    77.104551    89.033358    81.351231    1797.9355  0.040819671  0.039673182  0.048903871   0.12939672  0.030322789  0.030123576  0.040097576   0.10054394 
  224000   -1792205.1    13579.191    473.70484    77.104551    89.033358    81.351231    1802.7456  0.040631859  0.040297143   0.04855587   0.12948487  0.030228822   0.03028194  0.038624424  0.099135187 
  225000   -1792138.9    13557.891   -218.65845    77.104551    89.033358    81.351231    1799.9178  0.041650293  0.040846595  0.050340516    0.1328374   0.03157573  0.030904058  0.038947913    0.1014277 
  226000   -1792194.5    13567.342    522.35626    77.104551    89.033358    81.351231    1801.1725  0.040006918  0.040960176  0.047803422   0.12877052  0.030742113  0.031371845  0.037861864  0.099975822 
  227000   -1792222.3     13574.45   -365.23483    77.104551    89.033358    81.351231    1802.1161  0.040383954  0.040283235  0.048336961   0.12900415  0.030528538  0.030382986  0.038425692  0.099337215 
  228000   -1792188.4     13514.82   -217.55995    77.104551    89.033358    81.351231    1794.1997  0.040643088  0.040538236  0.048657395   0.12983872  0.030743932  0.030756371  0.038879685   0.10037999 
  229000   -1792234.1    13616.418    20.958187    77.104551    89.033358    81.351231    1807.6878   0.04059323  0.041643888  0.048453434   0.13069055  0.030275781  0.031587716  0.038367877   0.10023137 
  230000   -1792224.5    13589.034   -46.546757    77.104551    89.033358    81.351231    1804.0523  0.040959324  0.041654215   0.04945875   0.13207229  0.031710676  0.031425089  0.039641021   0.10277679 
  231000   -1792250.5    13522.821   -366.19476    77.104551    89.033358    81.351231    1795.2619   0.04098121   0.04091151   0.04804614   0.12993886  0.030294169  0.030168769  0.037692444  0.098155383 
  232000   -1792144.4    13480.395     570.1294    77.104551    89.033358    81.351231    1789.6296  0.040996083  0.041816456  0.048478193   0.13129073  0.030982488  0.031528155  0.038245991   0.10075663 
  233000   -1792265.6    13565.046   -211.39353    77.104551    89.033358    81.351231    1800.8677  0.041784568   0.04150212  0.047644536   0.13093122   0.03224143  0.030992148  0.037792177   0.10102576 
  234000   -1792227.7    13543.713   -158.19493    77.104551    89.033358    81.351231    1798.0355  0.040847136  0.041331746  0.048376344   0.13055523  0.030913074  0.031342794  0.038035245   0.10029111 
  235000   -1792195.9    13619.964    -744.3161    77.104551    89.033358    81.351231    1808.1585  0.040956025  0.041017948  0.048024525    0.1299985  0.030514992  0.030780726  0.037798164  0.099093882 
  236000   -1792169.4    13579.066    26.712659    77.104551    89.033358    81.351231     1802.729  0.040749444   0.04031499  0.048572926   0.12963736  0.030983303  0.030953134  0.038637197   0.10057363 
  237000   -1792129.8    13543.957    554.70381    77.104551    89.033358    81.351231    1798.0679  0.041676879  0.041259042  0.049169008   0.13210493  0.031366461  0.031258492  0.038528926   0.10115388 
  238000   -1792239.1    13659.314    481.06135    77.104551    89.033358    81.351231    1813.3825  0.040986457  0.040915979  0.048226725   0.13012916  0.030902368  0.031208024  0.038333076   0.10044347 
  239000   -1792189.7    13553.182   -350.31707    77.104551    89.033358    81.351231    1799.2926  0.041208228  0.041404974  0.050259013   0.13287222  0.030735551  0.031486626  0.039727041   0.10194922 
  240000     -1792201    13464.976   -97.886972    77.104551    89.033358    81.351231    1787.5825  0.041455839   0.04082353  0.048417279   0.13069665  0.030933032  0.030895706  0.038644721   0.10047346 
  241000   -1792167.1     13644.48    155.27033    77.104551    89.033358    81.351231    1811.4131  0.041714635  0.041566321  0.046971864   0.13025282  0.030844486  0.031398699  0.038150259   0.10039344 
  242000   -1792236.3     13444.15   -1294.8691    77.104551    89.033358    81.351231    1784.8178  0.042052764   0.04073484  0.048748956   0.13153656  0.030584966  0.031196789  0.039404252   0.10118601 
  243000   -1792277.7    13538.363   -47.810846    77.104551    89.033358    81.351231    1797.3252  0.040296093  0.041384724  0.048059764   0.12974058  0.029798371  0.031490176  0.039007093   0.10029564 
  244000     -1792247    13559.715    332.90618    77.104551    89.033358    81.351231    1800.1599  0.041025327  0.041099066  0.049216242   0.13134063  0.030317526  0.031912937  0.040201468   0.10243193 
  245000   -1792267.5    13618.534    -25.50448    77.104551    89.033358    81.351231    1807.9686  0.040348756    0.0408221   0.04839051   0.12956137  0.030094326    0.0312273  0.039039221   0.10036085 
  246000   -1792193.9    13549.501   -25.465777    77.104551    89.033358    81.351231    1798.8039  0.040887976   0.04157671  0.047191097   0.12965578  0.030706976  0.032104463  0.037530102   0.10034154 
  247000   -1792288.4    13498.794   -693.49099    77.104551    89.033358    81.351231    1792.0722  0.040377789  0.040976222  0.048824075   0.13017809  0.030502204  0.030819179  0.039392549   0.10071393 
  248000   -1792133.8    13581.103    366.93592    77.104551    89.033358    81.351231    1802.9994  0.041859472  0.041871418  0.048128067   0.13185896  0.030847201  0.032030837  0.038402048   0.10128009 
  249000   -1792210.7    13566.805   -154.92173    77.104551    89.033358    81.351231    1801.1012  0.041739551  0.040852528  0.048154569   0.13074665  0.031209384  0.030978275  0.038871383   0.10105904 
  250000   -1792272.4     13592.13   -604.39828    77.104551    89.033358    81.351231    1804.4633  0.040558492  0.041036556  0.048806347    0.1304014  0.029889058  0.031014845  0.038788936  0.099692839 
  251000   -1792179.7    13570.417    189.62962    77.104551    89.033358    81.351231    1801.5807  0.041766729  0.041573392  0.048673183    0.1320133  0.030570649  0.031729823   0.03818835   0.10048882 
  252000     -1792171    13608.334    62.487736    77.104551    89.033358    81.351231    1806.6144  0.041964905  0.041209625  0.048956684   0.13213121  0.031095736   0.03077341  0.038733821   0.10060297 
  253000   -1792165.3    13581.531    239.98379    77.104551    89.033358    81.351231    1803.0562   0.04153833  0.040793055  0.049805706   0.13213709  0.031072305  0.031234536  0.039688191   0.10199503 
  254000   -1792225.5    13591.916    365.07908    77.104551    89.033358    81.351231    1804.4349  0.041062747  0.041770288  0.049286279   0.13211931   0.03004059  0.031819115   0.03878416   0.10064387 
  255000   -1792188.8      13597.1   -140.93496    77.104551    89.033358    81.351231    1805.1231  0.041177995   0.04080197  0.049318075   0.13129804  0.029996271  0.031409079  0.039156095   0.10056145 
  256000   -1792188.7    13539.101    509.64921    77.104551    89.033358    81.351231    1797.4232  0.041298789  0.041326502  0.049021583   0.13164687  0.030724668  0.031784957  0.038734703   0.10124433 
  257000   -1792156.1    13551.685    -21.20034    77.104551    89.033358    81.351231    1799.0938  0.040971911  0.042219817  0.049267441   0.13245917  0.030569011  0.031567996  0.038163918   0.10030093 
  258000   -1792253.3    13588.989   -557.07687    77.104551    89.033358    81.351231    1804.0463  0.041549622  0.042046932  0.049478618   0.13307517  0.030499323  0.031364085  0.038687304   0.10055071 
  259000   -1792267.3    13546.806   -932.79873    77.104551    89.033358    81.351231    1798.4461  0.041146186  0.040500934  0.048769691   0.13041681  0.030589531  0.030600694  0.038055086   0.09924531 
  260000   -1792268.9    13568.883    -345.9093    77.104551    89.033358    81.351231    1801.3771  0.041895736  0.041393882  0.047955798   0.13124541  0.030923767  0.031434803  0.037441763  0.099800333 
  261000   -1792258.3    13545.177   -14.365822    77.104551    89.033358    81.351231    1798.2299  0.041375369  0.041207598   0.04754598   0.13012895   0.03042277  0.030656159  0.036433692  0.097512621 
  262000   -1792177.8    13522.294    282.22212    77.104551    89.033358    81.351231     1795.192  0.041771684   0.04086322   0.04887129   0.13150619  0.031019474  0.030577959  0.038119961  0.099717393 
  263000   -1792177.1    13494.387    20.111705    77.104551    89.033358    81.351231    1791.4871  0.040807754  0.042101849  0.049287536   0.13219714   0.03069003  0.031495127   0.03799233   0.10017749 
  264000   -1792182.5    13583.777   -730.41389    77.104551    89.033358    81.351231    1803.3544  0.041652606  0.042693203  0.050145042   0.13449085  0.031482263  0.031626442  0.039766627   0.10287533 
  265000   -1792194.3     13556.79   -71.906983    77.104551    89.033358    81.351231    1799.7717  0.041600885  0.041437094  0.048701452   0.13173943  0.030894614  0.030623801  0.037706963  0.099225377 
  266000   -1792218.4    13518.209   -320.38603    77.104551    89.033358    81.351231    1794.6497  0.041501016  0.042746913    0.0498877   0.13413563  0.030677632  0.031199533  0.038742668   0.10061983 
  267000   -1792244.3    13537.508    109.86759    77.104551    89.033358    81.351231    1797.2118  0.041748998  0.041544667  0.049115043   0.13240871   0.03102345  0.030535771  0.038022095  0.099581316 
  268000   -1792256.9    13645.626   -481.23839    77.104551    89.033358    81.351231    1811.5653  0.041718849  0.041606284  0.048407186   0.13173232  0.030469546  0.031474397  0.037539072  0.099483015 
  269000   -1792211.2    13552.882   -482.98533    77.104551    89.033358    81.351231    1799.2528  0.041489016  0.040547325  0.049922952   0.13195929  0.030678026  0.030589206  0.039207254   0.10047449 
  270000   -1792211.1    13557.252    438.93189    77.104551    89.033358    81.351231    1799.8329  0.041592832  0.042025729  0.048448342    0.1320669  0.031449163  0.031408824  0.037829606   0.10068759 
  271000   -1792217.6    13573.762   -329.68958    77.104551    89.033358    81.351231    1802.0248  0.041327821  0.041592917   0.04878773   0.13170847  0.030416878    0.0306183  0.037472523  0.098507702 
  272000   -1792155.6    13565.594    -234.1052    77.104551    89.033358    81.351231    1800.9404  0.042609266  0.041881818  0.048535792   0.13302688   0.03277498  0.030681617   0.03750861   0.10096521 
  273000   -1792269.7    13572.351   -355.00655    77.104551    89.033358    81.351231    1801.8375  0.041340049  0.041913529  0.049077303   0.13233088  0.031499402  0.031277404  0.038992446   0.10176925 
  274000   -1792193.7    13515.437    -408.8442    77.104551    89.033358    81.351231    1794.2817  0.042534497   0.04072441  0.048367239   0.13162615  0.032085362  0.030464098  0.037812761   0.10036222 
  275000   -1792295.2    13511.516   -750.10218    77.104551    89.033358    81.351231    1793.7611  0.041844262  0.041005553    0.0505263   0.13337611  0.031528898   0.03147319  0.039596472   0.10259856 
  276000   -1792129.1    13605.702       494.61    77.104551    89.033358    81.351231    1806.2651  0.041911774  0.042336484  0.050618965   0.13486722  0.031187201  0.031946097  0.038640576   0.10177387 
  277000   -1792089.4    13545.723    49.229399    77.104551    89.033358    81.351231    1798.3024  0.042032044  0.041250764  0.049670033   0.13295284  0.031353285  0.031188998  0.038810866   0.10135315 
  278000     -1792219    13632.921    225.25474    77.104551    89.033358    81.351231    1809.8786  0.040892013   0.04119224  0.049293554   0.13137781  0.030360822  0.031135704   0.03880685   0.10030338 
  279000   -1792231.5    13580.887   -13.008302    77.104551    89.033358    81.351231    1802.9708  0.042079296  0.041778398  0.049904113   0.13376181  0.032561617  0.031439646   0.03873788   0.10273914 
  280000   -1792256.7    13587.609   -644.96129    77.104551    89.033358    81.351231    1803.8631  0.041635004  0.041936331  0.048870399   0.13244173  0.031084359  0.031312805  0.037363768  0.099760932 
  281000   -1792259.9    13533.536   -585.83504    77.104551    89.033358    81.351231    1796.6844  0.041629492  0.041602767  0.049691534   0.13292379  0.031131182  0.030661367  0.038135076  0.099927625 
  282000     -1792226     13558.49    371.42737    77.104551    89.033358    81.351231    1799.9974  0.041128774  0.042213128  0.048688869   0.13203077  0.030725302  0.031369178  0.038499419    0.1005939 
  283000   -1792251.2    13474.412   -754.49839    77.104551    89.033358    81.351231    1788.8353  0.041461346  0.041724626  0.049028966   0.13221494  0.031775365   0.03120501  0.038042794   0.10102317 
  284000   -1792214.1    13601.974   -153.22789    77.104551    89.033358    81.351231    1805.7702  0.043174089  0.041471951  0.050101646   0.13474769  0.032385149  0.030367859  0.039048349   0.10180136 
  285000   -1792284.7    13573.133    82.252629    77.104551    89.033358    81.351231    1801.9413  0.041731622  0.041191007  0.049940203   0.13286283  0.030923605  0.031027809  0.038298483    0.1002499 
  286000   -1792236.6    13670.906    154.02794    77.104551    89.033358    81.351231    1814.9215  0.043281408  0.040918806  0.050190513   0.13439073  0.032341864  0.030404487   0.03957681   0.10232316 
  287000   -1792141.1    13567.295    259.88591    77.104551    89.033358    81.351231    1801.1663  0.042460369  0.041659129  0.049431194   0.13355069  0.031639312  0.031203311  0.038110729   0.10095335 
  288000     -1792161    13567.509    505.10084    77.104551    89.033358    81.351231    1801.1947  0.041702922  0.041308278  0.048388544   0.13139974  0.030933248  0.030492483  0.037609032  0.099034763 
  289000   -1792207.7    13584.319   -138.35458    77.104551    89.033358    81.351231    1803.4263  0.042881897  0.041844801  0.049748012   0.13447471  0.031742048  0.031121624  0.038769204   0.10163288 
  290000   -1792088.3    13559.324    614.22481    77.104551    89.033358    81.351231    1800.1081  0.042428515  0.042193685  0.048674905    0.1332971  0.030472794   0.03078926  0.038081088  0.099343142 
  291000   -1792163.4    13545.011    137.59574    77.104551    89.033358    81.351231    1798.2078  0.043005612  0.040687028  0.049527491   0.13322013  0.031901045  0.030592452  0.039616495   0.10210999 
  292000   -1792257.8    13580.015   -275.98064    77.104551    89.033358    81.351231     1802.855  0.042537703  0.040222795  0.048497095   0.13125759  0.030853641  0.030401803  0.037345807  0.098601251 
  293000   -1792135.9    13511.684    23.304424    77.104551    89.033358    81.351231    1793.7835  0.043744798  0.041399667  0.049304583   0.13444905  0.030660073  0.030162608  0.039059444  0.099882125 
  294000   -1792200.9    13589.722    203.55627    77.104551    89.033358    81.351231    1804.1436  0.043297694  0.041898536  0.049518066    0.1347143   0.03178253  0.030951111  0.038829997   0.10156364 
  295000   -1792219.1    13530.339   -102.97671    77.104551    89.033358    81.351231      1796.26   0.04260437  0.042194544  0.049729793   0.13452871  0.030597233  0.030468186  0.038273908  0.099339327 
  296000   -1792189.9     13550.65     272.9542    77.104551    89.033358    81.351231    1798.9565  0.043742473   0.04334889  0.049674758   0.13676612   0.03190528  0.031400517  0.038877459   0.10218326 
  297000   -1792166.8     13538.57   -460.02336    77.104551    89.033358    81.351231    1797.3527  0.042640045  0.042838561  0.049227368   0.13470597   0.03136573  0.030892644  0.037853581   0.10011196 
  298000   -1792197.3    13601.798   -104.24896    77.104551    89.033358    81.351231    1805.7468  0.043448826   0.04225395  0.050665725    0.1363685  0.031590026  0.030581082   0.03848206   0.10065317 
  299000   -1792116.1    13491.256    349.22724    77.104551    89.033358    81.351231    1791.0714   0.04243349  0.042168591  0.048483313   0.13308539  0.030889149  0.031238489  0.037975014   0.10010265 
  300000   -1792191.7    13595.703    58.667163    77.104551    89.033358    81.351231    1804.9376  0.041428468  0.042115828  0.048714786   0.13225908  0.030748714  0.030493848  0.039154226   0.10039679 
  301000   -1792313.9    13606.945    -597.1891    77.104551    89.033358    81.351231    1806.4301  0.041824306  0.042228473  0.048975096   0.13302788  0.030879218  0.030515809  0.037780102  0.099175129 
  302000   -1792200.2    13588.878    388.79332    77.104551    89.033358    81.351231    1804.0316   0.04221268  0.041881033  0.049698773   0.13379249  0.031057143   0.02990565  0.038001078  0.098963871 
  303000   -1792236.2    13495.341   -83.748475    77.104551    89.033358    81.351231    1791.6138  0.042968316  0.041860125  0.049304602   0.13413304  0.032015611  0.031177814  0.038599786   0.10179321 
  304000   -1792151.3    13582.443    461.85691    77.104551    89.033358    81.351231    1803.1773  0.042336236  0.041425267  0.048885124   0.13264663  0.031174174  0.030144834  0.037494995  0.098814003 
  305000   -1792143.1    13540.748    514.76355    77.104551    89.033358    81.351231     1797.642  0.042305174  0.042396944  0.049269237   0.13397135  0.030807783  0.031025161  0.038411287   0.10024423 
  306000   -1792201.6    13553.135   -129.18711    77.104551    89.033358    81.351231    1799.2864   0.04267103  0.042010576  0.048691828   0.13337343  0.030774878   0.03065889  0.037764426  0.099198194 
  307000   -1792229.9    13562.529   -227.50145    77.104551    89.033358    81.351231    1800.5335   0.04258682  0.042683965  0.049912101   0.13518289  0.030823338  0.030742211  0.038572779   0.10013833 
  308000   -1792213.3     13578.72    -177.4844    77.104551    89.033358    81.351231     1802.683  0.043372985  0.042834623  0.049188826   0.13539643  0.031559733  0.030202734  0.039053131    0.1008156 
  309000   -1792216.7    13615.538   -223.90002    77.104551    89.033358    81.351231    1807.5709  0.041519433   0.04267247  0.050137983   0.13432989  0.029916395  0.029977387  0.038784974  0.098678756 
  310000   -1792153.5     13654.22    446.41595    77.104551    89.033358    81.351231    1812.7062  0.043664672  0.043788906  0.049298594   0.13675217  0.031540093  0.031306075  0.038308556   0.10115472 
  311000   -1792203.9    13629.045    81.182185    77.104551    89.033358    81.351231    1809.3641  0.042215748  0.042058864  0.049060229   0.13333484  0.030779876  0.030395101  0.038731996  0.099906973 
  312000   -1792295.9    13610.914   -453.54421    77.104551    89.033358    81.351231     1806.957  0.042209883   0.04234708  0.049051152   0.13360811  0.031106411  0.030298062  0.038453314  0.099857787 
  313000   -1792170.9    13584.617    142.31527    77.104551    89.033358    81.351231    1803.4659  0.041600167  0.042112482  0.048778439   0.13249109  0.030601173   0.03034832   0.03755428  0.098503773 
  314000   -1792271.6    13548.425   -121.25943    77.104551    89.033358    81.351231    1798.6611  0.041295821  0.041398755  0.049166751   0.13186133  0.030582839  0.030310496  0.038620469  0.099513805 
  315000   -1792231.6    13639.266    433.78141    77.104551    89.033358    81.351231     1810.721  0.041152505  0.040962051  0.050336689   0.13245125  0.029801951   0.03058411  0.038839706  0.099225766 
  316000   -1792238.4    13574.744   -289.09868    77.104551    89.033358    81.351231    1802.1552  0.041478004  0.041715209  0.050136446   0.13332966  0.029769173  0.030457924   0.03879082  0.099017917 
  317000   -1792266.4     13540.49   -564.08735    77.104551    89.033358    81.351231    1797.6077  0.042127893  0.042192072  0.049247446   0.13356741  0.030921387  0.031098046  0.038476585   0.10049602 
  318000   -1792276.5    13520.185   -322.57002    77.104551    89.033358    81.351231    1794.9121  0.041887997  0.041186602  0.049286254   0.13236085  0.031304107  0.029880777  0.038274697   0.09945958 
  319000   -1792136.5    13543.098    264.71676    77.104551    89.033358    81.351231    1797.9538  0.042291145  0.041517917    0.0487107   0.13251976  0.030431386  0.030896702  0.037990176  0.099318265 
  320000   -1792196.8    13565.182     14.73348    77.104551    89.033358    81.351231    1800.8857  0.042391244  0.041130935  0.049240286   0.13276247   0.03088779  0.030555258   0.03818326  0.099626308 
  321000     -1792262    13512.336   -799.74108    77.104551    89.033358    81.351231      1793.87  0.041263076  0.041062748    0.0493246   0.13165042  0.029626305  0.030183519  0.038079736   0.09788956 
  322000   -1792228.2     13543.65   -633.28967    77.104551    89.033358    81.351231    1798.0272  0.041746595  0.040980517   0.04987838   0.13260549  0.030666952  0.030173062  0.037917165   0.09875718 
  323000   -1792222.9    13618.662    286.15774    77.104551    89.033358    81.351231    1807.9857  0.042222141  0.040731946   0.04966747   0.13262156   0.03082853  0.030329675  0.037986355  0.099144559 
  324000     -1792164    13567.117     122.6517    77.104551    89.033358    81.351231    1801.1426  0.041807803  0.041276069  0.050000052   0.13308392  0.030667928  0.030778005  0.039506467    0.1009524 
  325000   -1792289.5    13499.265   -471.72525    77.104551    89.033358    81.351231    1792.1347  0.040922249  0.041527215  0.049658833    0.1321083  0.029897716  0.029929064  0.038728619  0.098555399 
  326000   -1792226.3     13544.22   -349.15884    77.104551    89.033358    81.351231    1798.1028  0.041908076   0.04186311  0.049570953   0.13334214  0.031718076  0.030674986  0.038468556   0.10086162 
  327000   -1792240.3    13514.884   -191.95714    77.104551    89.033358    81.351231    1794.2083  0.042026533   0.04270432  0.049434674   0.13416553  0.031402386   0.03183488  0.039108441   0.10234571 
  328000   -1792215.8    13524.118    422.55789    77.104551    89.033358    81.351231    1795.4341  0.041685005  0.042684031  0.049456799   0.13382583  0.030457436   0.03157595  0.038510253   0.10054364 
  329000   -1792279.5    13626.224   -714.50764    77.104551    89.033358    81.351231    1808.9895   0.04233965  0.041862567  0.048835728   0.13303795  0.031495997  0.030520853  0.037445299  0.099462149 
  330000   -1792168.2    13573.503    140.72342    77.104551    89.033358    81.351231    1801.9904  0.042482424  0.042923586  0.049268835   0.13467484  0.031144104  0.030960578  0.039001432   0.10110611 
  331000   -1792219.3    13660.363    95.268355    77.104551    89.033358    81.351231    1813.5217  0.042962356   0.04233911  0.049611406   0.13491287  0.031641025  0.030877543   0.03823687   0.10075544 
  332000   -1792136.8    13547.538    78.894432    77.104551    89.033358    81.351231    1798.5434  0.042367907   0.04212674   0.04947397   0.13396862  0.030929055    0.0307338  0.037431215  0.099094071 
  333000   -1792182.2    13528.257   -759.71919    77.104551    89.033358    81.351231    1795.9837  0.040960545  0.042238455  0.049113422   0.13231242  0.029904876  0.031198293  0.037830046  0.098933215 
  334000   -1792158.4    13516.375   -266.46183    77.104551    89.033358    81.351231    1794.4062  0.041780275  0.042292755  0.051055348   0.13512838  0.030977363  0.031492313  0.040158184   0.10262786 
  335000   -1792220.3     13590.06   -125.99936    77.104551    89.033358    81.351231    1804.1884   0.04150939  0.042417117  0.049454786   0.13338129  0.030746189  0.030410159  0.037549393  0.098705741 
  336000   -1792212.5    13560.218    401.49188    77.104551    89.033358    81.351231    1800.2267  0.042335746  0.041795466  0.050424893   0.13455611  0.031225412  0.030243711  0.038828506   0.10029763 
  337000   -1792241.1    13559.954    401.11062    77.104551    89.033358    81.351231    1800.1916  0.042932501  0.041824473  0.049902503   0.13465948  0.030659717  0.030560017  0.037567766    0.0987875 
  338000   -1792161.4    13540.971    95.697689    77.104551    89.033358    81.351231    1797.6716  0.043056218  0.042646216  0.050977228   0.13667966  0.031938343  0.031639594  0.038614563    0.1021925 
  339000   -1792189.4    13544.958    -118.4088    77.104551    89.033358    81.351231    1798.2009  0.042367862  0.041875291  0.050364164   0.13460732  0.031046462  0.030180662  0.038641126   0.09986825 
  340000   -1792243.7    13539.916   -638.42451    77.104551    89.033358    81.351231    1797.5314   0.04204935  0.043075978  0.050610478   0.13573581  0.030142424  0.031065981  0.039277078   0.10048548 
  341000   -1792210.9    13583.195   -179.39977    77.104551    89.033358    81.351231    1803.2771  0.043845022  0.042397307   0.05143255   0.13767488  0.031568565  0.031156568  0.039276186   0.10200132 
  342000   -1792241.9    13535.464   -139.17876    77.104551    89.033358    81.351231    1796.9404  0.042613663  0.042320142  0.049548592    0.1344824  0.030285751  0.030568873   0.03784403  0.098698655 
  343000   -1792229.4    13572.905    119.52428    77.104551    89.033358    81.351231     1801.911  0.043207836  0.042202139  0.051030067   0.13644004  0.031021989  0.030877842  0.038828629   0.10072846 
  344000   -1792167.1    13527.071     496.7214    77.104551    89.033358    81.351231    1795.8262  0.042659228  0.043026313   0.05027565   0.13596119  0.030904973  0.031115277  0.038852534   0.10087278 
  345000   -1792248.3    13532.027   -710.57227    77.104551    89.033358    81.351231    1796.4841  0.042250271  0.041999572  0.049435056    0.1336849  0.030632146  0.030559965  0.037990028  0.099182138 
  346000   -1792240.9    13477.756   -910.77071    77.104551    89.033358    81.351231    1789.2792  0.042215136   0.04276782  0.051363898   0.13634685   0.03052436     0.030684  0.039308393   0.10051675 
  347000   -1792238.8    13535.326   -685.05417    77.104551    89.033358    81.351231    1796.9221   0.04239696  0.042527453  0.049724349   0.13464876  0.030532075   0.03114302  0.038639479   0.10031457 
  348000   -1792275.9    13552.587    73.049044    77.104551    89.033358    81.351231    1799.2136  0.043123923   0.04264385  0.049250281   0.13501805  0.031032156  0.030426605  0.037793959  0.099252721 
  349000   -1792235.5    13461.859   -55.525889    77.104551    89.033358    81.351231    1787.1688   0.04205126  0.043003653  0.049811115   0.13486603   0.03071886  0.030723138  0.038057807  0.099499805 
  350000   -1792311.1     13575.99   -362.17102    77.104551    89.033358    81.351231    1802.3206  0.041341038   0.04150674  0.050060191   0.13290797  0.029603053    0.0296145  0.038258302  0.097475855 
  351000   -1792213.3    13559.182   -332.26011    77.104551    89.033358    81.351231    1800.0891  0.042580014  0.043200596  0.049885759   0.13566637  0.030866178  0.030995876  0.038028629  0.099890683 
  352000     -1792128    13642.007   0.74511784    77.104551    89.033358    81.351231    1811.0849  0.042947507  0.043895234  0.049253358    0.1360961  0.030516172  0.031032041  0.037793236  0.099341449 
  353000   -1792273.7    13521.952   -418.73722    77.104551    89.033358    81.351231    1795.1466  0.042693674  0.042801825  0.050587015   0.13608251  0.030952992  0.030778406  0.039227861   0.10095926 
  354000   -1792179.8     13631.04    533.41742    77.104551    89.033358    81.351231    1809.6288  0.042672659  0.044545818  0.051166513   0.13838499  0.030557531  0.031327502  0.039214509   0.10109954 
  355000   -1792264.3    13552.067   -713.51549    77.104551    89.033358    81.351231    1799.1446  0.042698472  0.043279947  0.049498758   0.13547718  0.030388263  0.030389641  0.037699971  0.098477875 
  356000   -1792298.5    13564.115   -281.45838    77.104551    89.033358    81.351231    1800.7441  0.042828486  0.044074628  0.051976627   0.13887974  0.031205277  0.031253049  0.039009301   0.10146763 
  357000     -1792226    13459.574   -942.05754    77.104551    89.033358    81.351231    1786.8655  0.043821438  0.043081055  0.049031288   0.13593378  0.031568931  0.030661908  0.037421201  0.099652039 
  358000   -1792246.6    13607.178   -375.79074    77.104551    89.033358    81.351231    1806.4611  0.043629886  0.043791786  0.049779236   0.13720091  0.030844112  0.030802949  0.037284222  0.098931283 
  359000   -1792231.7    13569.686   -360.63146    77.104551    89.033358    81.351231    1801.4836  0.042991274  0.043329689  0.050357085   0.13667805  0.030816217   0.03028808   0.03894237   0.10004667 
  360000   -1792245.8    13580.808   -549.39056    77.104551    89.033358    81.351231    1802.9603  0.042857905  0.042416378  0.049208605   0.13448289  0.030333548  0.029939017  0.037312578  0.097585143 
  361000   -1792185.6    13478.488   -257.26053    77.104551    89.033358    81.351231    1789.3764  0.043644127   0.04389434   0.05070767   0.13824614  0.031748099  0.031307298  0.038746738   0.10180214 
  362000   -1792301.8    13647.247   -64.349631    77.104551    89.033358    81.351231    1811.7805  0.041666417  0.044485785    0.0502749    0.1364271  0.029289237  0.031373595  0.037879228   0.09854206 
  363000   -1792181.4    13551.989   -282.28165    77.104551    89.033358    81.351231    1799.1342  0.042936085  0.043453076  0.049976059   0.13636522  0.031199557   0.03072359  0.037567046  0.099490193 
  364000   -1792146.4     13579.84    362.68718    77.104551    89.033358    81.351231    1802.8317  0.043443819  0.044182003  0.049990944   0.13761677  0.030773887  0.031554716  0.037153699  0.099482302 
  365000   -1792179.9    13562.256    298.58602    77.104551    89.033358    81.351231    1800.4973   0.04406864  0.043100387  0.050658837   0.13782787  0.031292141  0.030504761  0.038127225  0.099924126 
  366000   -1792183.1    13574.083    233.01327    77.104551    89.033358    81.351231    1802.0674  0.044518547  0.043969422  0.050915924   0.13940389  0.031700519  0.031013363  0.038736781   0.10145066 
  367000   -1792192.7     13570.53    405.52897    77.104551    89.033358    81.351231    1801.5957  0.043489159  0.042812536   0.05034806   0.13664975  0.030451909  0.030957828   0.03804123  0.099450967 
  368000   -1792284.8    13572.556   -204.73086    77.104551    89.033358    81.351231    1801.8646  0.043814194  0.043312694  0.050715334   0.13784222  0.030919289  0.031346984  0.038449865   0.10071614 
  369000   -1792195.7    13566.525   -109.67392    77.104551    89.033358    81.351231    1801.0641  0.043286518  0.043104909  0.049734625   0.13612605  0.030360444  0.030176944  0.036905918  0.097443306 
  370000   -1792221.6    13499.993   -191.65295    77.104551    89.033358    81.351231    1792.2313  0.044208857  0.042499232  0.050102725   0.13681081   0.03117009  0.030673845  0.037618036  0.099461972 
  371000   -1792171.2    13512.307    110.03502    77.104551    89.033358    81.351231    1793.8662  0.043662054  0.042825311  0.050776528   0.13726389  0.031036908  0.030487189  0.038655737   0.10017983 
  372000   -1792175.6    13591.306    45.542161    77.104551    89.033358    81.351231    1804.3539  0.043021281  0.042306316  0.050663454   0.13599105  0.030296699  0.030571907  0.038546184  0.099414791 
  373000     -1792142     13577.98     124.5149    77.104551    89.033358    81.351231    1802.5848  0.044460855  0.042915982  0.049744063    0.1371209  0.031694484  0.031011472  0.038195587   0.10090154 
  374000   -1792175.5    13596.284    223.77183    77.104551    89.033358    81.351231    1805.0147  0.042890789   0.04407539  0.051199983   0.13816616  0.030136453  0.031670719  0.039041041   0.10084821 
  375000   -1792252.2    13607.108    96.531001    77.104551    89.033358    81.351231    1806.4517  0.042739992  0.043033343  0.050075975   0.13584931     0.029941  0.030436388  0.037471899  0.097849287 
  376000   -1792288.1     13551.36   -820.46606    77.104551    89.033358    81.351231    1799.0507  0.044278831  0.043038429  0.049680514   0.13699777  0.030806745  0.030788837  0.037509141  0.099104723 
  377000   -1792166.1     13593.46   -465.94354    77.104551    89.033358    81.351231    1804.6399  0.043690384  0.043026069  0.050218153   0.13693461  0.030887303  0.030757244  0.038476847   0.10012139 
  378000   -1792198.9    13535.831    742.26808    77.104551    89.033358    81.351231    1796.9892  0.043061134  0.043703582  0.050307724   0.13707244  0.030716046  0.031676452  0.038104666   0.10049716 
  379000     -1792269    13564.275    -485.6794    77.104551    89.033358    81.351231    1800.7654   0.04380199  0.043338856  0.049918789   0.13705964  0.031692259  0.031209224  0.038399028   0.10130051 
  380000   -1792104.7    13587.317    275.55129    77.104551    89.033358    81.351231    1803.8243  0.043328799  0.044175638  0.050202814   0.13770725   0.03106203  0.030971914  0.038381783   0.10041573 
  381000   -1792184.9    13574.369   -52.079322    77.104551    89.033358    81.351231    1802.1053  0.042984955  0.043713856  0.049923399   0.13662221  0.030550358  0.030972944  0.037737076  0.099260378 
  382000   -1792163.7    13450.626   -247.43644    77.104551    89.033358    81.351231    1785.6775  0.043276147  0.043241286  0.051134296   0.13765173  0.031371211  0.030837844     0.038579   0.10078806 
  383000   -1792165.2    13498.441    157.28429    77.104551    89.033358    81.351231    1792.0253  0.044149858  0.043081709  0.051385963   0.13861753  0.031524292  0.030832111   0.03916043   0.10151683 
  384000   -1792182.7    13573.402     17.15598    77.104551    89.033358    81.351231     1801.977  0.043724264  0.043700609  0.049954504   0.13737938  0.031398982  0.030849104  0.038032098   0.10028018 
  385000   -1792182.9    13563.016    335.83189    77.104551    89.033358    81.351231    1800.5982  0.043129743  0.043004345  0.050493604   0.13662769  0.030219255  0.030943167  0.039082462   0.10024488 
  386000   -1792198.1    13478.009   -92.730539    77.104551    89.033358    81.351231    1789.3129  0.043861068  0.042917984  0.050055808   0.13683486  0.030712894  0.030825533  0.037935953   0.09947438 
  387000   -1792204.9    13576.481    340.13986    77.104551    89.033358    81.351231    1802.3858  0.044725113  0.043917525  0.050648369   0.13929101  0.032359071  0.031929049  0.037969555   0.10225768 
  388000   -1792206.3    13580.168    341.00736    77.104551    89.033358    81.351231    1802.8752  0.044162612  0.043981285  0.050574478   0.13871837  0.031768981  0.031571347  0.038652022   0.10199235 
  389000   -1792178.9    13554.487    333.68363    77.104551    89.033358    81.351231    1799.4659  0.043826197  0.043475376  0.050208358   0.13750993  0.031260232  0.031041238  0.038671531     0.100973 
  390000   -1792149.1    13527.155   -42.915392    77.104551    89.033358    81.351231    1795.8374  0.043948465  0.044045046  0.050747466   0.13874098  0.031038554  0.032551761  0.038772159   0.10236247 
  391000   -1792233.2    13529.652   -293.76497    77.104551    89.033358    81.351231    1796.1689  0.042745444  0.043470887  0.051574913   0.13779124  0.031170119  0.031855584  0.038600259   0.10162596 
  392000   -1792120.1    13587.267    194.96282    77.104551    89.033358    81.351231    1803.8177  0.043630872  0.043481676  0.049969132   0.13708168  0.031035607  0.031590212  0.037563688   0.10018951 
  393000   -1792206.6    13587.027   -307.15221    77.104551    89.033358    81.351231    1803.7858  0.043917531  0.044057063  0.051174371   0.13914897  0.031069979  0.031465671  0.038600604   0.10113625 
  394000   -1792178.9    13535.068    520.47377    77.104551    89.033358    81.351231    1796.8879  0.044685474  0.043961923  0.050248875   0.13889627   0.03192997  0.031864734  0.037781978   0.10157668 
  395000   -1792170.9    13613.275    -591.3251    77.104551    89.033358    81.351231    1807.2704  0.043019145  0.042848406  0.050110471   0.13597802  0.031395945  0.030725634  0.038534228   0.10065581 
  396000   -1792208.1    13553.522   -277.91777    77.104551    89.033358    81.351231    1799.3377  0.042305156  0.043583782   0.05127536    0.1371643  0.030651332  0.031234116  0.038697927   0.10058337 
  397000   -1792193.5    13515.235    97.511646    77.104551    89.033358    81.351231    1794.2548  0.042598656  0.044966205  0.049490143     0.137055  0.031476257   0.03271933  0.037894982   0.10209057 
  398000   -1792236.6    13533.459   -410.52858    77.104551    89.033358    81.351231    1796.6742  0.042019917  0.043286839  0.051361794   0.13666855  0.031021584  0.030898189  0.039113579   0.10103335 
  399000   -1792277.1    13562.951   -503.87046    77.104551    89.033358    81.351231    1800.5895  0.043195668  0.044641766  0.050331043   0.13816848  0.032512574  0.032423447    0.0378695   0.10280552 
  400000   -1792227.8    13487.348    -337.7987    77.104551    89.033358    81.351231    1790.5527  0.042892942  0.043963245  0.050433307   0.13728949  0.031046365  0.031839807   0.03812531   0.10101148 
  401000   -1792180.8    13573.756   -178.35277    77.104551    89.033358    81.351231     1802.024  0.044639099  0.043693704  0.051111685   0.13944449  0.032918619  0.031025648  0.038366235    0.1023105 
  402000   -1792241.1    13589.859   -718.46841    77.104551    89.033358    81.351231    1804.1618  0.042904696  0.042768396    0.0510489   0.13672199  0.031325915  0.030490524  0.039030624   0.10084706 
  403000     -1792240    13539.682    24.708283    77.104551    89.033358    81.351231    1797.5004  0.042986663  0.043685035  0.051704743   0.13837644  0.030918245  0.031118494  0.039740563    0.1017773 
  404000   -1792151.9    13582.955    202.63523    77.104551    89.033358    81.351231    1803.2452  0.044534919  0.043268951   0.05093101   0.13873488  0.033062846  0.031200828  0.039025694   0.10328937 
  405000   -1792290.7    13526.219   -739.61348    77.104551    89.033358    81.351231     1795.713  0.042584603  0.043986926  0.050565268    0.1371368  0.030936788  0.031056941  0.038578695   0.10057242 
  406000   -1792168.3     13507.62    294.66984    77.104551    89.033358    81.351231     1793.244  0.044203014  0.044125543  0.051178836   0.13950739  0.032361075  0.031637478  0.038391581   0.10239013 
  407000   -1792148.7    13597.659    104.46457    77.104551    89.033358    81.351231    1805.1973  0.044073394  0.044590438  0.051794895   0.14045873   0.03224461  0.032063033  0.039533999   0.10384164 
  408000   -1792299.3    13589.804   -306.88222    77.104551    89.033358    81.351231    1804.1544  0.043624282  0.043261404  0.051063321   0.13794901  0.031562374  0.030921046   0.03914312   0.10162654 
  409000     -1792289    13519.292    -238.9647    77.104551    89.033358    81.351231    1794.7935    0.0438783  0.043523089  0.052374377   0.13977577  0.032315921  0.031326618  0.039838926   0.10348146 
  410000   -1792217.2    13535.954   -295.25002    77.104551    89.033358    81.351231    1797.0054  0.043017376  0.044050197  0.050068459   0.13713603  0.031227997  0.031833035  0.038105888   0.10116692 
  411000     -1792095    13535.087    260.06906    77.104551    89.033358    81.351231    1796.8904  0.045131481  0.043537986  0.052424104   0.14109357   0.03277054  0.032220332  0.040398373   0.10538924 
  412000     -1792166    13571.002    68.255446    77.104551    89.033358    81.351231    1801.6584  0.042809766  0.043739723   0.05218932   0.13873881  0.031747801  0.031669907  0.039204608   0.10262232 
  413000   -1792193.9    13565.583    297.53009    77.104551    89.033358    81.351231     1800.939  0.043416062  0.044301008  0.051208537   0.13892561   0.03237669  0.032297778  0.038918923   0.10359339 
  414000   -1792182.1    13507.614   -93.385179    77.104551    89.033358    81.351231    1793.2432  0.043962225  0.044084383  0.053097834   0.14114444  0.032637369  0.031689745  0.040643999   0.10497111 
  415000   -1792188.9    13666.687    366.69264    77.104551    89.033358    81.351231    1814.3613   0.04313927  0.044628392  0.051717511   0.13948517   0.03162824  0.031652249  0.038531599   0.10181209 
  416000   -1792263.3    13551.121   -278.34958    77.104551    89.033358    81.351231     1799.019  0.044204355  0.044250024  0.050161372   0.13861575  0.033254304  0.032371022  0.038306112   0.10393144 
  417000   -1792160.5    13555.822    223.01726    77.104551    89.033358    81.351231    1799.6431  0.043667699  0.043137489  0.052586013    0.1393912  0.032075014   0.03166614  0.039783854   0.10352501 
  418000   -1792120.6    13499.955    330.78678    77.104551    89.033358    81.351231    1792.2263  0.044361548  0.044589822  0.050387657   0.13933903  0.032157753  0.032264984  0.039021378   0.10344411 
  419000   -1792207.7    13567.998   -259.17846    77.104551    89.033358    81.351231    1801.2596  0.044713429  0.043278084   0.05117544   0.13916695  0.032347878  0.031857076  0.039392863   0.10359782 
  420000   -1792153.9    13531.922     289.3148    77.104551    89.033358    81.351231    1796.4702  0.043208621  0.043652833  0.050770295   0.13763175  0.031491856  0.030880798   0.03904706   0.10141971 
  421000   -1792204.7    13585.321    10.358472    77.104551    89.033358    81.351231    1803.5594  0.042818893  0.043125075  0.051465201   0.13740917  0.031915509  0.031711934  0.038899178   0.10252662 
  422000   -1792232.2    13599.532   -837.53432    77.104551    89.033358    81.351231     1805.446  0.042420819  0.043861064  0.050823367   0.13710525  0.031198382   0.03224596  0.038504751   0.10194909 
  423000   -1792298.2    13537.842   -1335.9287    77.104551    89.033358    81.351231    1797.2562  0.044613552   0.04361303  0.050908357   0.13913494  0.032949626  0.031203049  0.038236165   0.10238884 
  424000   -1792182.2    13534.497    108.65982    77.104551    89.033358    81.351231     1796.812  0.043932073  0.044020188  0.050942055   0.13889432  0.032058186  0.031879344  0.038175278   0.10211281 
  425000   -1792184.1    13527.844   -549.94691    77.104551    89.033358    81.351231    1795.9289  0.044892773  0.043891865  0.051160958    0.1399456  0.032288271  0.032658984  0.038037444    0.1029847 
  426000   -1792260.7    13512.046   -586.15482    77.104551    89.033358    81.351231    1793.8315  0.044467021  0.043336298  0.052056379    0.1398597  0.031865745  0.031732724  0.039363184   0.10296165 
  427000   -1792257.2    13524.186   -616.88847    77.104551    89.033358    81.351231    1795.4431  0.043713626   0.04223059  0.050308144   0.13625236  0.031568436   0.03062099  0.038279383   0.10046881 
  428000   -1792261.6     13521.29   -883.23519    77.104551    89.033358    81.351231    1795.0587  0.044955944  0.043124889  0.051322343   0.13940318  0.032199138  0.031942767  0.039658355   0.10380026 
  429000   -1792179.6    13531.185   -14.242235    77.104551    89.033358    81.351231    1796.3723   0.04433107  0.043361984  0.050715112   0.13840817  0.032118777  0.031329445  0.039173722   0.10262194 
  430000   -1792169.5    13616.482    194.25144    77.104551    89.033358    81.351231    1807.6963  0.045124798  0.043562751  0.051941136   0.14062869  0.031495801  0.031567838  0.039853472   0.10291711 
  431000   -1792142.9    13509.961   -305.39913    77.104551    89.033358    81.351231    1793.5547  0.044035132  0.044442046  0.052055405   0.14053258  0.031677396  0.032226664  0.039812294   0.10371635 
  432000   -1792161.7     13448.41   -222.11844    77.104551    89.033358    81.351231    1785.3833  0.044148602  0.044117679  0.050458809   0.13872509  0.031976977  0.032170239  0.038500823   0.10264804 
  433000   -1792206.8    13528.269   -287.11695    77.104551    89.033358    81.351231    1795.9853  0.043549416  0.043413049  0.051366796   0.13832926   0.03175892   0.03163028  0.039161076   0.10255028 
  434000   -1792173.3    13592.031    9.7674464    77.104551    89.033358    81.351231    1804.4501  0.044002911  0.044219948  0.050052301   0.13827516  0.031825351  0.032559771  0.037815872   0.10220099 
  435000   -1792188.8    13603.327    109.37716    77.104551    89.033358    81.351231    1805.9497  0.044434792  0.044833522  0.052140748   0.14140906  0.031697705  0.032500337  0.039833331   0.10403137 
  436000   -1792250.4    13570.763   -137.56931    77.104551    89.033358    81.351231    1801.6267   0.04498771  0.044200499  0.051825323   0.14101353   0.03167054  0.031542706  0.039716131   0.10292938 
  437000   -1792198.4    13569.746    37.907321    77.104551    89.033358    81.351231    1801.4917  0.045748127  0.044583488  0.051761688    0.1420933  0.033226788  0.032423522  0.039756181   0.10540649 
  438000   -1792187.7    13562.166    468.58332    77.104551    89.033358    81.351231    1800.4854  0.045392704  0.045373652  0.050878176   0.14164453  0.032263884  0.032656511  0.038057941   0.10297834 
  439000   -1792305.2    13550.179   -1109.3578    77.104551    89.033358    81.351231    1798.8939  0.044397405  0.045388218  0.050988346   0.14077397  0.032244305  0.032466604  0.038627981   0.10333889 
  440000   -1792297.7    13563.203   -1134.6675    77.104551    89.033358    81.351231     1800.623  0.044932589  0.044097438  0.050935707   0.13996573  0.032696471  0.031308435  0.038320284   0.10232519 
  441000   -1792175.5    13557.109    41.425343    77.104551    89.033358    81.351231     1799.814  0.043387679  0.044989988  0.050674321   0.13905199  0.031714496  0.031807983  0.038287827   0.10181031 
  442000   -1792239.1    13486.803   -794.07584    77.104551    89.033358    81.351231    1790.4803  0.044727269  0.045645557  0.052025041   0.14239787  0.032234782  0.032154659  0.039658977   0.10404842 
  443000   -1792154.2    13555.739    472.79238    77.104551    89.033358    81.351231    1799.6321  0.044796028  0.044240123  0.050543685   0.13957984  0.032253837  0.030854007  0.038038934   0.10114678 
  444000   -1792130.9    13598.788    252.25059    77.104551    89.033358    81.351231    1805.3472  0.044858892  0.045157727  0.051819227   0.14183585  0.032492456  0.031991078    0.0389732   0.10345673 
  445000   -1792210.7    13680.183    488.03046    77.104551    89.033358    81.351231     1816.153  0.043607828  0.045405993  0.053026791   0.14204061  0.031533354  0.031823796  0.039923224   0.10328037 
  446000   -1792138.2    13613.084    1018.7183    77.104551    89.033358    81.351231    1807.2451  0.044714661   0.04531078  0.052883234   0.14290867  0.032178262  0.031354593  0.040195823   0.10372868 
  447000   -1792221.9    13575.153     131.0028    77.104551    89.033358    81.351231    1802.2094  0.045233246  0.044583932  0.052075158   0.14189234  0.032611936  0.031884763  0.039568077   0.10406478 
  448000   -1792109.8    13521.888    636.52558    77.104551    89.033358    81.351231    1795.1381  0.043823198  0.045273037  0.051157909   0.14025414  0.031387716  0.032024671  0.038256076   0.10166846 
  449000   -1792172.8     13602.82    471.32311    77.104551    89.033358    81.351231    1805.8825  0.044918992  0.044995367  0.050806389   0.14072075  0.032515169   0.03177657  0.038453961    0.1027457 
  450000   -1792300.8    13536.462   -93.764478    77.104551    89.033358    81.351231    1797.0729  0.045612266  0.043527548  0.050893165   0.14003298  0.032603297  0.030950542  0.038974226   0.10252807 
  451000   -1792233.1    13595.275   -724.17535    77.104551    89.033358    81.351231    1804.8808  0.042777686  0.044858788  0.051607721   0.13924419  0.030999884  0.032463646  0.038648251   0.10211178 
  452000     -1792250    13598.742   -313.13996    77.104551    89.033358    81.351231     1805.341  0.043191097  0.043851762  0.050953334   0.13799619  0.031670116  0.031831412  0.038357625   0.10185915 
  453000     -1792154    13577.959   -285.22155    77.104551    89.033358    81.351231     1802.582  0.045010624  0.044195283  0.052606672   0.14181258  0.032762235  0.031976858  0.040350398   0.10508949 
  454000   -1792137.9    13626.991    310.50769    77.104551    89.033358    81.351231    1809.0913  0.043387236  0.044912439  0.051865484   0.14016516  0.031792429  0.032075859  0.039072202   0.10294049 
  455000   -1792215.1    13598.049   -242.59007    77.104551    89.033358    81.351231    1805.2491  0.044364252  0.044546058  0.052527558   0.14143787  0.032664184  0.032917934  0.039746873   0.10532899 
  456000   -1792267.1    13643.216   -585.19593    77.104551    89.033358    81.351231    1811.2454  0.044361269  0.044982474  0.051385765   0.14072951  0.032353552  0.032123535  0.038831198   0.10330829 
  457000   -1792255.4     13519.56   -711.65748    77.104551    89.033358    81.351231    1794.8291   0.04317428  0.044642481  0.051915741    0.1397325  0.032161039  0.032215802  0.039699676   0.10407652 
  458000   -1792218.3    13610.842    37.363005    77.104551    89.033358    81.351231    1806.9475  0.044062748   0.04449089  0.050424722   0.13897836  0.033045203  0.031823432  0.038176656   0.10304529 
  459000   -1792219.2    13531.447    338.26327    77.104551    89.033358    81.351231    1796.4072  0.043065964  0.044496157  0.050646835   0.13820896  0.032190186  0.032158991  0.038434959   0.10278414 
  460000   -1792179.5    13549.535    59.814978    77.104551    89.033358    81.351231    1798.8084  0.043243568  0.044998064  0.052277502   0.14051913  0.031604454  0.031888743  0.039765381   0.10325858 
  461000   -1792173.7    13660.391   -189.04533    77.104551    89.033358    81.351231    1813.5255  0.042653613  0.045234059  0.051455579   0.13934325  0.031513749  0.031906274  0.038480778    0.1019008 
  462000   -1792260.5    13580.086   -535.49604    77.104551    89.033358    81.351231    1802.8643  0.045099252  0.044441115  0.051479748   0.14102011  0.032962535  0.031498949  0.039754211   0.10421569 
  463000   -1792232.5     13690.49    43.229797    77.104551    89.033358    81.351231    1817.5213   0.04375976  0.044740994  0.049819807   0.13832056  0.032003316  0.032340437  0.037822498   0.10216625 
  464000   -1792201.4     13567.48    22.634403    77.104551    89.033358    81.351231    1801.1909  0.043399285  0.044708016  0.052151823   0.14025912  0.032107568  0.031903377  0.040368732   0.10437968 
  465000   -1792151.4    13521.753    415.69992    77.104551    89.033358    81.351231    1795.1202  0.044757787  0.046124969  0.051260304   0.14214306  0.032929616  0.032920873  0.038660709    0.1045112 
  466000   -1792238.8    13560.322    419.30511    77.104551    89.033358    81.351231    1800.2406  0.043956732  0.044328585  0.049789286    0.1380746  0.032014813  0.032455608  0.037405853   0.10187627 
  467000   -1792171.2     13543.16    585.88173    77.104551    89.033358    81.351231    1797.9622  0.043179944  0.044361943  0.053947449   0.14148934  0.031718621  0.031503541  0.041332324   0.10455449 
  468000   -1792186.2    13479.411    31.674345    77.104551    89.033358    81.351231    1789.4989  0.045066181   0.04498433   0.05239249     0.142443  0.032815711  0.032029534  0.038551444   0.10339669 
  469000   -1792183.1    13621.249    202.27719    77.104551    89.033358    81.351231    1808.3291  0.043310583  0.045703857  0.050793811   0.13980825  0.032223365    0.0326904  0.039023516   0.10393728 
  470000   -1792222.4    13632.395   -75.297071    77.104551    89.033358    81.351231    1809.8088  0.042957081  0.044861831  0.052804106   0.14062302  0.031564343  0.032942454   0.04024318   0.10474998 
  471000   -1792263.4    13548.067   -224.87987    77.104551    89.033358    81.351231    1798.6136   0.04420344  0.044281046  0.051457391   0.13994188  0.032154376   0.03256465  0.038676523   0.10339555 
  472000   -1792134.5      13609.3    613.96021    77.104551    89.033358    81.351231    1806.7427  0.044687395  0.044321577  0.052378161   0.14138713  0.033441977  0.032821325  0.040352936   0.10661624 
  473000   -1792246.5    13552.001   -695.86107    77.104551    89.033358    81.351231    1799.1358  0.044763135  0.044286257  0.051365735   0.14041513  0.032750543  0.032842655  0.039516518   0.10510972 
  474000   -1792205.6    13533.262   -293.86928    77.104551    89.033358    81.351231    1796.6481  0.045076728  0.043948644  0.051857397   0.14088277  0.032919916  0.032773782  0.038988987   0.10468268 
  475000   -1792210.7     13519.41    163.61221    77.104551    89.033358    81.351231    1794.8092  0.044008249  0.043660294  0.051494564   0.13916311  0.032510004  0.032743387   0.03900521    0.1042586 
  476000   -1792164.6    13518.562    261.18819    77.104551    89.033358    81.351231    1794.6965   0.04437108  0.043913195  0.051629357   0.13991363  0.031953881  0.032210199  0.039441625   0.10360571 
  477000     -1792174    13524.418   -284.13301    77.104551    89.033358    81.351231    1795.4739  0.044233996  0.044349407  0.051954145   0.14053755  0.032657695  0.032649727  0.039791419   0.10509884 
  478000     -1792175    13540.039    579.44956    77.104551    89.033358    81.351231    1797.5478   0.04435458  0.043771919  0.051303543   0.13943004  0.033177797  0.032072199  0.039093612   0.10434361 
  479000   -1792165.8    13583.464    409.12977    77.104551    89.033358    81.351231    1803.3128  0.044263903  0.043906926  0.053151096   0.14132193  0.032703206  0.032374325  0.040260165    0.1053377 
  480000     -1792211    13606.868   -249.19061    77.104551    89.033358    81.351231    1806.4199  0.044335248  0.044184595  0.050151505   0.13867135  0.032869789  0.031564716  0.038546177   0.10298068 
  481000   -1792266.8    13492.752   -427.20007    77.104551    89.033358    81.351231    1791.2701   0.04315917  0.043687422  0.050891385   0.13773798  0.031986891  0.031880303  0.038252128   0.10211932 
  482000     -1792241    13639.309   -504.23516    77.104551    89.033358    81.351231    1810.7267  0.043979693  0.043766902  0.053282008    0.1410286  0.032353676  0.032108141  0.040438464   0.10490028 
  483000   -1792164.3    13577.854     620.0729    77.104551    89.033358    81.351231    1802.5681  0.043673478  0.043387296  0.051953301   0.13901407  0.032878219  0.032261106  0.039826675     0.104966 
  484000   -1792254.2    13528.129   -454.36408    77.104551    89.033358    81.351231    1795.9667  0.043625867  0.043746004  0.052387819   0.13975969  0.032487462  0.032217438  0.039659952   0.10436485 
  485000   -1792188.1    13575.289   -480.60745    77.104551    89.033358    81.351231    1802.2275  0.043934164  0.043335592  0.051615557   0.13888531   0.03249196  0.031947209  0.039216978   0.10365615 
  486000   -1792151.1    13613.626   -96.722296    77.104551    89.033358    81.351231     1807.317  0.043860933   0.04290942  0.050957336   0.13772769  0.032454484  0.031570274  0.038817142    0.1028419 
  487000   -1792156.1    13528.756    140.90776    77.104551    89.033358    81.351231    1796.0499  0.044427493  0.043696718  0.051175313   0.13929952  0.033079943  0.032184428  0.039356766   0.10462114 
  488000   -1792216.6    13515.956   -351.55276    77.104551    89.033358    81.351231    1794.3505  0.043805187   0.04401785  0.050972686   0.13879572  0.032070603  0.032541267  0.038642272   0.10325414 
  489000   -1792174.5    13590.744    110.52693    77.104551    89.033358    81.351231    1804.2793  0.044415434  0.043582797  0.052062272    0.1400605   0.03264952  0.031664676  0.039157924   0.10347212 
  490000   -1792227.4    13640.633    -7.323364    77.104551    89.033358    81.351231    1810.9024  0.044586963  0.044688001  0.051574314   0.14084928   0.03223905  0.032293857  0.038227261   0.10276017 
  491000   -1792200.4      13507.3   -472.59812    77.104551    89.033358    81.351231    1793.2014   0.04453456  0.044413872  0.051433488   0.14038192  0.032161762  0.032707116  0.038800141   0.10366902 
  492000   -1792163.3    13533.251    541.94213    77.104551    89.033358    81.351231    1796.6466  0.044827464  0.044286411    0.0509155   0.14002938  0.032969433  0.032085545  0.039410142   0.10446512 
  493000   -1792167.3    13533.063    -408.5597    77.104551    89.033358    81.351231    1796.6217  0.043667805  0.044129011  0.050228118   0.13802493  0.031905306  0.032159025   0.03810543   0.10216976 
  494000   -1792219.8    13642.739    75.984686    77.104551    89.033358    81.351231     1811.182  0.044768516  0.044052512  0.051546067   0.14036709  0.032493159  0.032058404  0.039286876   0.10383844 
  495000   -1792220.9    13586.209    23.919999    77.104551    89.033358    81.351231    1803.6772  0.044970802  0.043918571  0.050893082   0.13978245  0.032863287  0.032467961  0.038625083   0.10395633 
  496000   -1792166.2    13513.951    279.74063    77.104551    89.033358    81.351231    1794.0844  0.044968971  0.043968765   0.05234847   0.14128621  0.032517748   0.03226355   0.03959476   0.10437606 
  497000   -1792198.8    13545.402   -286.59186    77.104551    89.033358    81.351231    1798.2597  0.044628437  0.043424766  0.051158203   0.13921141  0.032540807  0.031628941  0.039020774   0.10319052 
  498000   -1792149.6    13568.929   -287.27873    77.104551    89.033358    81.351231    1801.3832  0.043397495  0.044057553  0.051399902   0.13885495  0.031889881  0.032289642  0.039820038   0.10399956 
  499000   -1792235.5     13566.74   -405.93192    77.104551    89.033358    81.351231    1801.0926  0.044112428  0.044612383  0.051068721   0.13979353   0.03286948  0.032917988  0.038677686   0.10446515 
  500000   -1792215.3    13587.757   -574.22122    77.104551    89.033358    81.351231    1803.8827  0.043679094  0.044022708  0.051399703    0.1391015  0.031918715  0.032047776  0.038870434   0.10283692 
  501000   -1792244.8    13679.936    632.80856    77.104551    89.033358    81.351231    1816.1203  0.042929882   0.04455603  0.053070418   0.14055633  0.032193426  0.033028396  0.040800377    0.1060222 
  502000     -1792252    13557.725   -242.74575    77.104551    89.033358    81.351231    1799.8958  0.043989338  0.044054971  0.051410719   0.13945503  0.032460095  0.032743814  0.039069086   0.10427299 
  503000   -1792216.2    13627.761     2.535606    77.104551    89.033358    81.351231    1809.1935  0.042778502  0.043705623  0.052441632   0.13892576  0.032054282  0.032227303  0.040049069   0.10433065 
  504000   -1792290.7    13571.899   -469.21041    77.104551    89.033358    81.351231    1801.7774  0.043500177  0.043750825  0.052503344   0.13975435  0.032200919  0.032086757   0.03991297   0.10420065 
  505000   -1792178.1    13653.739   -299.41051    77.104551    89.033358    81.351231    1812.6423  0.043295632  0.043641914  0.052807075   0.13974462  0.031477712  0.032337729  0.039615463    0.1034309 
  506000   -1792065.2    13494.636    641.28339    77.104551    89.033358    81.351231    1791.5203  0.043162152  0.043480407  0.051567561   0.13821012  0.032103424  0.032291395  0.039814604   0.10420942 
  507000   -1792198.7    13547.933   -394.78227    77.104551    89.033358    81.351231    1798.5958  0.043362181  0.044245162  0.052076457    0.1396838  0.032558645  0.032527885  0.040417779   0.10550431 
  508000     -1792191    13494.621   -109.49413    77.104551    89.033358    81.351231    1791.5183  0.044881986  0.044376453  0.052245442   0.14150388  0.033583423  0.032187342    0.0397839   0.10555467 
  509000   -1792110.6    13643.796    699.09274    77.104551    89.033358    81.351231    1811.3223  0.045209137   0.04393036  0.051808345   0.14094784  0.033624273  0.032581521  0.039763367   0.10596916 
  510000   -1792267.7    13533.735   -356.05198    77.104551    89.033358    81.351231    1796.7109  0.044041173  0.043956263  0.051648574   0.13964601  0.031719667   0.03232455   0.03882223   0.10286645 
  511000     -1792167    13526.038   -151.83496    77.104551    89.033358    81.351231    1795.6891  0.044701187  0.044235618  0.051276015   0.14021282  0.032306455  0.032189585  0.038891892   0.10338793 
  512000   -1792212.9    13567.443    35.305178    77.104551    89.033358    81.351231    1801.1859  0.043926616   0.04361036  0.052553699   0.14009068  0.031558129  0.031637481  0.040918484   0.10411409 
  513000   -1792215.9    13557.751   -378.82272    77.104551    89.033358    81.351231    1799.8992  0.043896459  0.044784757  0.051713029   0.14039425  0.032366072  0.033187564  0.039563309   0.10511695 
  514000   -1792293.9    13600.381   -799.66086    77.104551    89.033358    81.351231    1805.5587  0.045935796   0.04450728  0.052138116   0.14258119  0.033176676  0.032955924   0.04005471   0.10618731 
  515000   -1792181.3    13561.316    -139.2146    77.104551    89.033358    81.351231    1800.3724  0.044620941  0.045427703  0.052172151    0.1422208  0.032389506  0.032493686  0.040140644   0.10502384 
  516000   -1792100.4    13560.791    866.39569    77.104551    89.033358    81.351231    1800.3027  0.043600289  0.045633459  0.051790217   0.14102396  0.032319812  0.033233268   0.04048362    0.1060367 
  517000   -1792175.1     13620.06   -62.547381    77.104551    89.033358    81.351231    1808.1712  0.044452117   0.04407286  0.052375268   0.14090024  0.032332372  0.032387007  0.040770729   0.10549011 
  518000   -1792233.5    13510.596   -484.66971    77.104551    89.033358    81.351231     1793.639  0.044897105  0.044727282  0.052391362   0.14201575  0.032285237  0.032738927  0.040645635    0.1056698 
  519000   -1792213.4    13450.022   -583.32129    77.104551    89.033358    81.351231    1785.5973  0.044606447  0.044863599  0.051995738   0.14146578  0.032191504  0.032759507  0.040285558   0.10523657 
  520000     -1792238    13580.358   -21.486338    77.104551    89.033358    81.351231    1802.9005  0.044684152  0.045165762  0.052179382    0.1420293  0.031443625  0.032967045  0.040450318   0.10486099 
  521000   -1792332.5    13604.065   -950.27334    77.104551    89.033358    81.351231    1806.0478  0.045169763  0.044190554  0.052176641   0.14153696  0.033300993  0.032694529  0.040198848   0.10619437 
  522000   -1792239.6     13572.54   -382.46144    77.104551    89.033358    81.351231    1801.8625  0.044499502   0.04453411  0.051663378   0.14069699   0.03210619  0.032849678  0.039482161   0.10443803 
  523000   -1792207.8     13565.31   -579.96033    77.104551    89.033358    81.351231    1800.9027  0.044958184  0.044920748  0.052703883   0.14258282  0.031929338  0.032561815  0.040037552   0.10452871 
  524000   -1792255.6    13618.444   -515.77233    77.104551    89.033358    81.351231    1807.9567  0.046137926  0.045228385   0.05290648   0.14427279  0.033477149   0.03305772  0.040763985   0.10729885 
  525000   -1792150.5    13493.458    208.77058    77.104551    89.033358    81.351231    1791.3638  0.044912863  0.045858548  0.052536054   0.14330747  0.032615403  0.032701863  0.039456236    0.1047735 
  526000   -1792202.3    13543.777    124.78636    77.104551    89.033358    81.351231     1798.044  0.044936919  0.045426017  0.053088766    0.1434517  0.032551685  0.032930058  0.040450115   0.10593186 
  527000   -1792170.7     13668.01    109.68389    77.104551    89.033358    81.351231     1814.537  0.045515382  0.045253319  0.052734436   0.14350314  0.032825127  0.032558815  0.040107877   0.10549182 
  528000     -1792169    13593.828    259.79975    77.104551    89.033358    81.351231    1804.6887  0.044806125  0.045536493  0.052417997   0.14276062  0.032521073  0.032696808  0.040391067   0.10560895 
  529000   -1792115.9    13545.866     225.1957    77.104551    89.033358    81.351231    1798.3214  0.045052011   0.04551303  0.052603296   0.14316834  0.032236709  0.033343056  0.040579351   0.10615912 
  530000   -1792204.9    13535.044   -392.64251    77.104551    89.033358    81.351231    1796.8846  0.044990446  0.045589868  0.052420862   0.14300118  0.031994571  0.032394324  0.039731897   0.10412079 
  531000   -1792201.1    13464.895   -351.08242    77.104551    89.033358    81.351231    1787.5719  0.044507035  0.045227339  0.053089117   0.14282349  0.032078708  0.032981794  0.040735013   0.10579552 
  532000   -1792213.7    13562.996   -110.34945    77.104551    89.033358    81.351231    1800.5955  0.044027616  0.045867748  0.052976212   0.14287158  0.032078373  0.033789358  0.039280195   0.10514793 
  533000     -1792183    13635.988    332.24539    77.104551    89.033358    81.351231    1810.2858  0.044279133  0.045726478  0.053333575   0.14333919   0.03255938  0.033047799   0.04002218   0.10562936 
  534000   -1792286.8    13523.759   -945.75669    77.104551    89.033358    81.351231    1795.3865  0.044472061  0.045336056  0.052085497   0.14189361  0.032106328   0.03256735  0.039255151   0.10392883 
  535000   -1792216.8    13656.155   -65.637584    77.104551    89.033358    81.351231    1812.9631  0.044309938  0.045813212  0.052223277   0.14234643  0.032601109  0.032736514  0.039929184   0.10526681 
  536000   -1792276.4    13575.757    87.817067    77.104551    89.033358    81.351231    1802.2897  0.045947541  0.045417974  0.053228691   0.14459421  0.033738316  0.032985503  0.039871167   0.10659499 
  537000   -1792259.5    13558.861   -199.53893    77.104551    89.033358    81.351231    1800.0466  0.045727464  0.045614298  0.052912898   0.14425466  0.032811136  0.033397669  0.040320756   0.10652956 
  538000   -1792252.2    13550.468     -245.639    77.104551    89.033358    81.351231    1798.9323  0.044706202  0.045280158  0.052615174   0.14260153  0.032711949  0.033386389  0.039968386   0.10606672 
  539000   -1792198.1    13549.665   -113.75382    77.104551    89.033358    81.351231    1798.8257  0.046517687   0.04687446  0.052658292   0.14605044  0.033290173   0.03462985  0.039723896   0.10764392 
  540000   -1792207.6    13509.296   -384.39113    77.104551    89.033358    81.351231    1793.4665  0.044990292  0.044857415  0.052853385   0.14270109  0.033257641  0.033245935  0.040513113   0.10701669 
  541000   -1792223.5    13519.195   -522.61144    77.104551    89.033358    81.351231    1794.7806  0.045417175  0.045097145  0.054079092   0.14459341  0.033142701  0.032640111  0.041015508   0.10679832 
  542000   -1792250.6     13512.87    -396.4005    77.104551    89.033358    81.351231    1793.9409  0.045822897  0.045394993  0.052605445   0.14382333  0.032476239  0.032762908  0.039516667   0.10475581 
  543000   -1792288.4    13613.713   -316.84828    77.104551    89.033358    81.351231    1807.3286  0.044926807  0.045591691  0.054012007   0.14453051  0.032469322  0.032486895  0.040160884    0.1051171 
  544000   -1792230.1    13609.968    251.45631    77.104551    89.033358    81.351231    1806.8314  0.044301222  0.046572128  0.052116662   0.14299001  0.031608259  0.034225571  0.039549091   0.10538292 
  545000   -1792126.5    13562.782    397.05248    77.104551    89.033358    81.351231    1800.5671  0.046052942  0.045859273  0.052805104   0.14471732  0.033227982  0.033331479  0.039465107   0.10602457 
  546000   -1792157.4    13568.186    196.89658    77.104551    89.033358    81.351231    1801.2845  0.045491463  0.045703279  0.053332776   0.14452752  0.032992755  0.032938832  0.040664068   0.10659565 
  547000   -1792132.6    13600.979    499.81912    77.104551    89.033358    81.351231     1805.638  0.044860431  0.045523349  0.053525031   0.14390881  0.032094582  0.032438097   0.03931026   0.10384294 
  548000   -1792213.6    13526.861   -183.46722    77.104551    89.033358    81.351231    1795.7983  0.046796933  0.045983791  0.053676093   0.14645682   0.03332734  0.032914979  0.040816846   0.10705917 
  549000   -1792185.4    13563.746   -248.15032    77.104551    89.033358    81.351231    1800.6951  0.046281733  0.047111149  0.052756399   0.14614928  0.032978676  0.033974892  0.039507161   0.10646073 
  550000   -1792199.5    13643.101    7.5147572    77.104551    89.033358    81.351231    1811.2301  0.046389465  0.046949583  0.053017947     0.146357  0.033237039  0.033490421  0.039338111   0.10606557 
  551000   -1792205.9    13566.503    25.578044    77.104551    89.033358    81.351231    1801.0611  0.047334239  0.047449128  0.054387655   0.14917102  0.033795316  0.034549885  0.041989921   0.11033512 
  552000   -1792237.9    13635.174   -546.92423    77.104551    89.033358    81.351231    1810.1778  0.046816629  0.046398161  0.052695109    0.1459099  0.032544389   0.03290484  0.039521337   0.10497057 
  553000     -1792323    13606.866   -589.94389    77.104551    89.033358    81.351231    1806.4196  0.046983655  0.046625058  0.054251688    0.1478604  0.033479236  0.033302646  0.040339964   0.10712185 
  554000   -1792192.5    13604.817    107.91625    77.104551    89.033358    81.351231    1806.1475  0.046479026  0.046136183  0.052322045   0.14493725  0.032766491  0.033966333  0.039865734   0.10659856 
  555000     -1792164    13595.449    76.009804    77.104551    89.033358    81.351231    1804.9039  0.046252853  0.046754837  0.053113034   0.14612072  0.032765024  0.033024532  0.039781771   0.10557133 
  556000   -1792276.9    13560.737   -449.21287    77.104551    89.033358    81.351231    1800.2957  0.046782429  0.046186859  0.053976673   0.14694596  0.032765446  0.033683631   0.04077128   0.10722036 
  557000   -1792160.4    13489.925    209.41174    77.104551    89.033358    81.351231    1790.8948  0.046940924   0.04626708  0.053095476   0.14630348  0.033115063  0.033728971  0.039307486   0.10615152 
  558000   -1792284.8    13572.325   -644.12049    77.104551    89.033358    81.351231    1801.8341  0.045919453   0.04670317   0.05375654   0.14637916  0.032589272  0.033896314  0.040445928   0.10693151 
  559000   -1792179.3    13606.231     275.1486    77.104551    89.033358    81.351231    1806.3353  0.045653906  0.046079038   0.05328844   0.14502138  0.032337638  0.032912915  0.040480094   0.10573065 
  560000   -1792293.1    13586.098    147.36699    77.104551    89.033358    81.351231    1803.6624  0.047250989  0.045645204  0.052524722   0.14542092  0.032534949   0.03249253  0.038639778   0.10366726 
  561000   -1792117.6    13574.298    104.52621    77.104551    89.033358    81.351231    1802.0959  0.047333927  0.045819904  0.054882689   0.14803652  0.032491757  0.032804466  0.041888699   0.10718492 
  562000   -1792169.5     13557.14    152.05807    77.104551    89.033358    81.351231     1799.818  0.046532455  0.045300012  0.053356872   0.14518934  0.032222579  0.032637824   0.04015842   0.10501882 
  563000   -1792214.4    13492.474    56.844872    77.104551    89.033358    81.351231    1791.2331  0.047354604  0.046805524  0.054318407   0.14847854  0.033696027  0.034089714  0.041314737   0.10910048 
  564000   -1792174.5    13651.717    270.98715    77.104551    89.033358    81.351231    1812.3739  0.047817072  0.047535217  0.053693786   0.14904607  0.033187055  0.034139213  0.040361035    0.1076873 
  565000   -1792337.3    13517.522    -736.3699    77.104551    89.033358    81.351231    1794.5585   0.04676956  0.045872218  0.053268268   0.14591005  0.032839119  0.032741237  0.040188165   0.10576852 
  566000     -1792227    13543.697   -664.18673    77.104551    89.033358    81.351231    1798.0335  0.046622468  0.045667247   0.05317617   0.14546589  0.032144323  0.033006082  0.039920155   0.10507056 
  567000   -1792271.2    13589.043   -127.11415    77.104551    89.033358    81.351231    1804.0535  0.046171659  0.046297288  0.053275442   0.14574439  0.031861897  0.033223814  0.040005342   0.10509105 
  568000   -1792202.8    13486.702   -201.85834    77.104551    89.033358    81.351231    1790.4669  0.047239256  0.046747006  0.053440424   0.14742669  0.032862826   0.03329472  0.040405186   0.10656273 
  569000   -1792216.4    13637.255   -236.67928    77.104551    89.033358    81.351231     1810.454  0.046955008  0.046892516   0.05278395   0.14663147  0.031986311  0.033456778  0.040891101   0.10633419 
  570000   -1792247.5    13594.785   -363.05764    77.104551    89.033358    81.351231    1804.8157  0.047273589  0.047350239  0.054427052   0.14905088  0.033328281  0.033281777  0.040248221   0.10685828 
  571000   -1792132.8    13471.127    274.53277    77.104551    89.033358    81.351231    1788.3991  0.046785305  0.047692585  0.052886991   0.14736488  0.032441092  0.033833328  0.039416032   0.10569045 
  572000   -1792241.9    13592.783   -759.99344    77.104551    89.033358    81.351231      1804.55  0.046379666  0.047635187  0.052930587   0.14694544  0.032001519  0.033054856  0.039284161   0.10434054 
  573000   -1792194.3    13550.315   -496.69068    77.104551    89.033358    81.351231    1798.9121  0.047088869  0.047400342  0.053194335   0.14768355  0.033029168   0.03374485  0.039340664   0.10611468 
  574000   -1792250.2    13508.714   -366.89111    77.104551    89.033358    81.351231    1793.3892  0.045858547  0.047079267  0.053865682    0.1468035  0.031856683  0.033507908  0.040232539   0.10559713 
  575000   -1792229.4    13573.634    -422.1698    77.104551    89.033358    81.351231    1802.0078  0.046479087  0.047034447   0.05389808   0.14741161  0.032032464  0.033191318  0.040862039   0.10608582 
  576000   -1792197.3    13599.764   -112.92602    77.104551    89.033358    81.351231    1805.4768  0.046719873  0.047347146  0.053594752   0.14766177  0.033050797  0.033079984  0.040208226   0.10633901 
  577000   -1792105.6    13503.913    480.51428    77.104551    89.033358    81.351231    1792.7518   0.04618068   0.04771113  0.054113319   0.14800513  0.032597854  0.033885081  0.041337933   0.10782087 
  578000   -1792281.4    13579.408   -198.56951    77.104551    89.033358    81.351231    1802.7744   0.04585974  0.046619701  0.053658642   0.14613808  0.032890668  0.032612649  0.040667847   0.10617116 
  579000   -1792235.5    13567.617    -576.0894    77.104551    89.033358    81.351231     1801.209  0.046910179  0.047731071  0.053391687   0.14803294  0.033397964  0.033490535  0.040912075   0.10780057 
  580000   -1792225.6    13585.793   -346.10004    77.104551    89.033358    81.351231     1803.622  0.046040583   0.04665381  0.054128514   0.14682291  0.032439625  0.032980743  0.040596116   0.10601648 
  581000   -1792193.3    13560.338    65.202034    77.104551    89.033358    81.351231    1800.2427  0.046330138    0.0464494  0.053983294   0.14676283  0.032694576  0.033020797  0.040827912   0.10654328 
  582000   -1792250.7    13581.542   -641.08657    77.104551    89.033358    81.351231    1803.0576  0.046274387  0.047199682  0.053806303   0.14728037  0.033058337  0.032983869  0.040398359   0.10644056 
  583000   -1792204.9    13591.595    162.39499    77.104551    89.033358    81.351231    1804.3923  0.046009889  0.046119497  0.053422817    0.1455522  0.032441986  0.032553771  0.040120464   0.10511622 
  584000   -1792245.3    13441.556   -461.82228    77.104551    89.033358    81.351231    1784.4734  0.045206749  0.046849197  0.055546723   0.14760267  0.032108997  0.032465607  0.041906965   0.10648157 
  585000   -1792180.6    13614.311     -2.83748    77.104551    89.033358    81.351231     1807.408  0.046687232  0.046846323  0.054385816   0.14791937  0.033124066  0.033020164  0.040473986   0.10661822 
  586000   -1792279.1     13488.84    -964.7904    77.104551    89.033358    81.351231    1790.7507   0.04603541  0.046704112  0.054729791   0.14746931   0.03297534  0.033622336  0.040029094   0.10662677 
  587000   -1792136.8    13436.716    296.53975    77.104551    89.033358    81.351231    1783.8309  0.046441524  0.046357967  0.054284837   0.14708433   0.03269348  0.032507012  0.040101118   0.10530161 
  588000   -1792290.1    13536.161   -387.80442    77.104551    89.033358    81.351231    1797.0329  0.045646207  0.047856392  0.053277766   0.14678036  0.033068293  0.033755514  0.040190543   0.10701435 
  589000   -1792260.9    13642.121   -394.60908    77.104551    89.033358    81.351231    1811.1001  0.044797371  0.046503629  0.055708716   0.14700972  0.031517177  0.031799331  0.041347771   0.10466428 
  590000   -1792282.2    13573.537   -540.49867    77.104551    89.033358    81.351231    1801.9949  0.045488191  0.046957034  0.053757083   0.14620231  0.032025231  0.032747773  0.040431404   0.10520441 
  591000     -1792173     13610.01    247.83129    77.104551    89.033358    81.351231     1806.837  0.047116973  0.046955075   0.05464192   0.14871397  0.033087577  0.032776472  0.040635305   0.10649935 
  592000   -1792240.5    13524.248    -709.5829    77.104551    89.033358    81.351231    1795.4515  0.045050976  0.046175212  0.053806776   0.14503296  0.032340168  0.032359655  0.041041305   0.10574113 
  593000   -1792206.6    13546.674    20.057738    77.104551    89.033358    81.351231    1798.4286    0.0453311  0.046313656  0.054733467   0.14637822  0.032231819  0.031975724  0.041101585   0.10530913 
  594000   -1792215.9    13593.753   -104.94951    77.104551    89.033358    81.351231    1804.6788  0.046051272  0.047046944  0.053863851   0.14696207  0.032834117  0.032952021  0.039890622   0.10567676 
  595000   -1792200.2    13659.116    162.60864    77.104551    89.033358    81.351231    1813.3563   0.04581036  0.047046846  0.054017425   0.14687463  0.031893344  0.032759664  0.040792776   0.10544578 
  596000   -1792321.1    13595.963   -346.33013    77.104551    89.033358    81.351231    1804.9721  0.046208259  0.046614761  0.053505334   0.14632835  0.031998421  0.032813078  0.039743836   0.10455533 
  597000   -1792171.6    13540.161   -136.84861    77.104551    89.033358    81.351231     1797.564  0.047560661  0.046733651  0.053770317   0.14806463  0.033348948  0.033241841  0.039581362   0.10617215 
  598000   -1792238.1    13538.151   -609.94962    77.104551    89.033358    81.351231    1797.2971  0.045931577  0.046445319  0.054818772   0.14719567  0.032044373  0.032973511   0.04053851   0.10555639 
  599000     -1792136    13618.508    675.76057    77.104551    89.033358    81.351231    1807.9652  0.046133942  0.045700544  0.053733799   0.14556829  0.032002208  0.032248992  0.040127269   0.10437847 
  600000   -1792241.4    13603.817    36.143633    77.104551    89.033358    81.351231    1806.0149  0.046824984  0.045776214  0.054494175   0.14709537  0.032208255  0.032278763  0.040944155   0.10543117 
  601000   -1792256.3    13617.505   -112.64233    77.104551    89.033358    81.351231     1807.832  0.046181084  0.046522031  0.053895887     0.146599  0.031889169  0.033818543  0.039544933   0.10525265 
  602000   -1792170.6    13600.582    57.121134    77.104551    89.033358    81.351231    1805.5853  0.046610562  0.045754551  0.054322512   0.14668762  0.032224066  0.032589756  0.040129205   0.10494303 
  603000   -1792235.5    13579.527   -42.673245    77.104551    89.033358    81.351231    1802.7902  0.047374739  0.046160228  0.055074528   0.14860949   0.03281123   0.03240575  0.041457985   0.10667496 
  604000   -1792229.2    13547.422   -889.01533    77.104551    89.033358    81.351231    1798.5279  0.046318787  0.046812512  0.054783248   0.14791455  0.032470272  0.033364598  0.041066759   0.10690163 
  605000   -1792283.6    13654.879   -170.75609    77.104551    89.033358    81.351231    1812.7937  0.046432988  0.046423315  0.053264203   0.14612051  0.032350941  0.033294397  0.040329277   0.10597462 
  606000   -1792187.2    13548.513   -205.89796    77.104551    89.033358    81.351231    1798.6728  0.047971627  0.046206257  0.053749032   0.14792692  0.033030848  0.032516608  0.040530788   0.10607824 
  607000   -1792233.7     13471.12   -909.80297    77.104551    89.033358    81.351231    1788.3983  0.046314616  0.046058253  0.053340655   0.14571352  0.031819111  0.032595849  0.040171285   0.10458624 
  608000   -1792230.8    13522.557   -443.05733    77.104551    89.033358    81.351231    1795.2269  0.046449154  0.046699949  0.053067901     0.146217  0.031874149  0.033886532  0.038577796   0.10433848 
  609000   -1792174.6    13579.604    163.12516    77.104551    89.033358    81.351231    1802.8004  0.047474621   0.04595971  0.053595208   0.14702954  0.033754481  0.032465274  0.039617594   0.10583735 
  610000   -1792258.2    13621.531   -78.703002    77.104551    89.033358    81.351231    1808.3665  0.046313646  0.045826211  0.053291358   0.14543122  0.032061401  0.032291515  0.039685178   0.10403809 
  611000     -1792172    13598.023    156.46624    77.104551    89.033358    81.351231    1805.2457   0.04627729  0.047408624   0.05445163   0.14813754   0.03236047  0.033095207  0.040479205   0.10593488 
  612000   -1792201.6    13596.051   -4.3876131    77.104551    89.033358    81.351231    1804.9839  0.047743004  0.045956955     0.055031   0.14873096  0.033477296  0.032296735  0.040968171    0.1067422 
  613000   -1792299.7    13574.406    -310.4603    77.104551    89.033358    81.351231    1802.1103  0.046519486  0.046202272  0.054251947    0.1469737  0.032548641  0.032305392  0.040722688   0.10557672 
  614000   -1792260.3    13560.044   -713.24314    77.104551    89.033358    81.351231    1800.2036  0.046473443  0.047335812  0.054981051   0.14879031  0.032590103  0.033514183  0.040869705   0.10697399 
  615000   -1792241.3    13581.147   -528.51516    77.104551    89.033358    81.351231    1803.0052  0.047507566  0.046772976  0.053962794   0.14824334  0.033242196  0.033095093  0.039902505   0.10623979 
  616000   -1792286.7    13530.982    -967.9678    77.104551    89.033358    81.351231    1796.3454  0.047280029  0.046670418  0.053404309   0.14735476    0.0335078  0.032923361  0.039559794   0.10599096 
  617000   -1792194.6    13599.704   -381.72687    77.104551    89.033358    81.351231    1805.4688  0.046617011   0.04731622  0.054820406   0.14875364   0.03342221  0.033374018  0.040528869    0.1073251 
  618000   -1792234.9    13564.786   -34.138196    77.104551    89.033358    81.351231    1800.8332  0.046513968  0.047720344  0.053341335   0.14757565   0.03267881  0.033461957  0.039312614   0.10545338 
  619000   -1792224.2    13644.253    27.198447    77.104551    89.033358    81.351231     1811.383  0.046977836  0.046815108  0.054348356    0.1481413   0.03272376  0.033209483  0.040711949   0.10664519 
  620000     -1792233     13589.46   -174.43763    77.104551    89.033358    81.351231    1804.1089  0.047303109  0.046750748  0.054814336   0.14886819   0.03325592  0.032547059  0.041020904   0.10682388 
  621000   -1792256.1    13485.871   -295.30898    77.104551    89.033358    81.351231    1790.3566  0.047230398  0.047486878  0.054561554   0.14927883  0.032859509  0.032944416  0.040405311   0.10620924 
  622000   -1792186.9    13537.151   -277.02946    77.104551    89.033358    81.351231    1797.1644  0.046754773  0.046781815  0.054902213    0.1484388  0.032998566  0.033279002   0.04096668   0.10724425 
  623000   -1792162.2    13591.604    1028.8125    77.104551    89.033358    81.351231    1804.3935  0.046452428  0.047017241  0.054742369   0.14821204  0.032150195  0.032672265  0.040898691   0.10572115 
  624000   -1792239.1     13601.09   -187.59599    77.104551    89.033358    81.351231    1805.6527  0.047899771   0.04762076   0.05451263   0.15003316  0.033814859  0.033005507  0.040748695   0.10756906 
  625000   -1792197.1    13522.754   -328.36993    77.104551    89.033358    81.351231     1795.253   0.04647756  0.046569095  0.054196219   0.14724287  0.033073485  0.032957004  0.040450586   0.10648107 
  626000     -1792187    13567.341   -140.61698    77.104551    89.033358    81.351231    1801.1723  0.046739299  0.046950143  0.055317331   0.14900677  0.032794807  0.032809456  0.041920675   0.10752494 
  627000     -1792195    13535.514    378.41816    77.104551    89.033358    81.351231    1796.9471  0.047269564  0.047260863  0.053315271    0.1478457  0.033356086  0.034011988  0.039578607   0.10694668 
  628000   -1792178.3    13564.554    345.32127    77.104551    89.033358    81.351231    1800.8023    0.0466519  0.047051379  0.052423341   0.14612662  0.032808682  0.033398937  0.040049633   0.10625725 
  629000   -1792179.5    13577.889   -202.66012    77.104551    89.033358    81.351231    1802.5726  0.046966369  0.047014424  0.056282797   0.15026359  0.033433886  0.033058646  0.042095865    0.1085884 
  630000     -1792168    13571.958    162.81214    77.104551    89.033358    81.351231    1801.7853  0.046671099  0.046421124  0.053680647   0.14677287  0.032501807  0.032548635  0.039847319   0.10489776 
  631000   -1792174.3    13434.336   -426.05837    77.104551    89.033358    81.351231    1783.5148  0.046702528  0.047015932  0.053653106   0.14737157  0.032532988  0.032945533  0.039992566   0.10547109 
  632000     -1792258    13561.088   -207.85736    77.104551    89.033358    81.351231    1800.3423  0.046269535  0.047646221  0.054060248     0.147976  0.032552246  0.032886796  0.039740981   0.10518002 
  633000   -1792250.6    13564.192   -350.75968    77.104551    89.033358    81.351231    1800.7543  0.046918781   0.04672332  0.053747109   0.14738921   0.03278674  0.032384573  0.039136541   0.10430785 
  634000   -1792144.3    13461.972    70.644326    77.104551    89.033358    81.351231    1787.1838   0.04744255  0.046661051  0.054530126   0.14863373  0.032798924  0.032876353  0.040901802   0.10657708 
  635000   -1792176.9    13514.631   -234.52533    77.104551    89.033358    81.351231    1794.1747  0.046198504  0.046153525  0.054432839   0.14678487  0.032579472  0.033165944  0.041033298   0.10677871 
  636000   -1792240.8    13631.874   -419.31341    77.104551    89.033358    81.351231    1809.7397  0.046825885  0.046483347  0.053331839   0.14664107  0.032901752  0.032697624  0.040412949   0.10601233 
  637000   -1792201.9    13582.962   -394.01471    77.104551    89.033358    81.351231    1803.2462  0.046922206  0.046490588  0.054198369   0.14761116  0.032208943  0.033173421  0.040551354   0.10593372 
  638000     -1792121    13525.142    586.74987    77.104551    89.033358    81.351231    1795.5701  0.047481669  0.046987444  0.053493807   0.14796292  0.032410531  0.033113087  0.040157472   0.10568109 
  639000   -1792274.1    13589.982   -637.89051    77.104551    89.033358    81.351231    1804.1781  0.047121252  0.046514684  0.054273078   0.14790901  0.032220938  0.032918192  0.040409117   0.10554825 
  640000   -1792226.3    13547.472   -619.19533    77.104551    89.033358    81.351231    1798.5346  0.046569971  0.047425495  0.053958191   0.14795366  0.032554366  0.033154354  0.039794208   0.10550293 
  641000   -1792288.8     13588.13   -587.33658    77.104551    89.033358    81.351231    1803.9323  0.047106669  0.047910786  0.054070542     0.149088  0.032443741  0.034067877   0.04030944   0.10682106 
  642000   -1792226.9    13494.589     -595.441    77.104551    89.033358    81.351231    1791.5139   0.04670282  0.046303595  0.053745042   0.14675146  0.032629961  0.032288549   0.04019308   0.10511159 
  643000   -1792235.7    13528.396    12.719385    77.104551    89.033358    81.351231    1796.0021  0.047440255  0.046128825  0.053900578   0.14746966  0.032366834  0.032378545  0.039962701   0.10470808 
  644000   -1792168.1    13505.221    216.05636    77.104551    89.033358    81.351231    1792.9254  0.047140375    0.0490446  0.054009605   0.15019458  0.033197903  0.032997011  0.039651642   0.10584656 
  645000   -1792179.2    13576.004    141.76791    77.104551    89.033358    81.351231    1802.3224  0.046353395  0.048075982  0.054160691   0.14859007  0.032510175  0.032767429  0.039521732   0.10479934 
  646000   -1792151.3    13608.811    524.29125    77.104551    89.033358    81.351231    1806.6778  0.047025299  0.047637229  0.054475266   0.14913779  0.033244541  0.032901889  0.040669862   0.10681629 
  647000   -1792174.8    13609.249    451.44066    77.104551    89.033358    81.351231     1806.736  0.047476619  0.048375825  0.054708917   0.15056136  0.033514791  0.033650774  0.041121957   0.10828752 
  648000   -1792219.9     13630.87   -411.56774    77.104551    89.033358    81.351231    1809.6064  0.046830486  0.047474485  0.053913956   0.14821893  0.032788833  0.033276687  0.039786462   0.10585198 
  649000   -1792231.4    13554.778    273.06747    77.104551    89.033358    81.351231    1799.5045  0.047427689  0.047428762  0.054144157   0.14900061  0.033604278  0.033140972  0.040278495   0.10702375 
  650000   -1792209.1    13619.456   -169.11449    77.104551    89.033358    81.351231     1808.091   0.04591399  0.048265668  0.054773264   0.14895292  0.032105946  0.033126764  0.040983405   0.10621612 
  651000   -1792238.6    13561.969   -388.81734    77.104551    89.033358    81.351231    1800.4592   0.04538609  0.048396761  0.054537005   0.14831986  0.032128259  0.033094144  0.039585779   0.10480818 
  652000   -1792148.3    13547.829   -9.5503471    77.104551    89.033358    81.351231    1798.5819  0.047161143  0.047565658  0.054395066   0.14912187  0.033093088    0.0331291  0.040498231   0.10672042 
  653000   -1792264.3    13548.247   -515.08779    77.104551    89.033358    81.351231    1798.6374  0.046793741  0.048123841  0.052827143   0.14774472  0.032803621  0.033364635  0.039038364   0.10520662 
  654000   -1792247.5    13562.711   -586.55042    77.104551    89.033358    81.351231    1800.5577  0.046736404  0.048331791     0.054919    0.1499872  0.032256157  0.033235139  0.040260493   0.10575179 
  655000   -1792327.4    13626.637   -1131.4225    77.104551    89.033358    81.351231    1809.0443  0.047293627  0.047777143  0.054499907   0.14957068  0.032626838  0.032434972   0.03977897   0.10484078 
  656000   -1792116.6    13593.252    698.68978    77.104551    89.033358    81.351231    1804.6122  0.046890694    0.0486627  0.054108564   0.14966196  0.032141348  0.032873668  0.040186055   0.10520107 
  657000   -1792122.3    13524.411     393.3925    77.104551    89.033358    81.351231    1795.4731  0.047630216  0.048592224  0.054790437   0.15101288  0.032740679  0.033170099   0.04138432    0.1072951 
  658000     -1792231    13479.883   -859.94281    77.104551    89.033358    81.351231    1789.5617  0.046965036  0.047574768  0.053313155   0.14785296  0.032584868  0.032452386   0.03973048   0.10476773 
  659000   -1792240.4    13604.487   -231.80959    77.104551    89.033358    81.351231    1806.1038  0.047459023  0.049491598  0.054902886   0.15185351  0.032708057  0.033764735   0.04060158   0.10707437 
  660000   -1792313.5    13506.835   -546.67884    77.104551    89.033358    81.351231    1793.1397  0.047008005  0.048073842  0.053753941   0.14883579  0.032035004  0.032752936  0.039496789   0.10428473 
  661000   -1792255.1     13503.73   -559.88014    77.104551    89.033358    81.351231    1792.7274  0.046784926  0.048140535  0.054662797   0.14958826  0.032356418  0.033431052   0.03982525   0.10561272 
  662000   -1792240.4    13554.819   -220.83465    77.104551    89.033358    81.351231      1799.51  0.047246491  0.048852044   0.05444322   0.15054175  0.032321636  0.033807379  0.039967506   0.10609652 
  663000   -1792167.3    13545.202   -351.98914    77.104551    89.033358    81.351231    1798.2332  0.047021455  0.047777954   0.05339021   0.14818962  0.032211368  0.032827312  0.039685571   0.10472425 
  664000   -1792194.5    13474.678   -370.57814    77.104551    89.033358    81.351231    1788.8706  0.047579646  0.047975287  0.055806193   0.15136113  0.033029722   0.03285935  0.041416496   0.10730557 
  665000   -1792168.7    13611.539    371.99136    77.104551    89.033358    81.351231    1807.0401  0.046979158  0.048276965  0.053751276    0.1490074  0.032980626  0.034147986  0.039775161   0.10690377 
  666000   -1792215.7    13591.288    57.274869    77.104551    89.033358    81.351231    1804.3516  0.047108854  0.048722044  0.055346031   0.15117693  0.032691707  0.033704516  0.040963824   0.10736005 
  667000   -1792281.4    13515.055   -449.93647    77.104551    89.033358    81.351231     1794.231  0.047400044  0.047714416  0.054621545     0.149736  0.032950606  0.033294876    0.0400197   0.10626518 
  668000   -1792205.1    13618.518   -473.28479    77.104551    89.033358    81.351231    1807.9665  0.046595996  0.048369562  0.054395584   0.14936114  0.031746496  0.033573795  0.039915615    0.1052359 
  669000   -1792212.3    13654.061     306.6037    77.104551    89.033358    81.351231    1812.6851  0.048830746  0.048704275  0.055388171   0.15292319   0.03384512  0.034013188  0.040810008   0.10866832 
  670000     -1792185    13622.671    386.22992    77.104551    89.033358    81.351231    1808.5179  0.047642895  0.048210676  0.054392002   0.15024557  0.033751917  0.033533236  0.040866865   0.10815202 
  671000   -1792323.8    13553.917   -841.74221    77.104551    89.033358    81.351231    1799.3902  0.047645856  0.047168506  0.053442841    0.1482572   0.03232908  0.033364074  0.039724391   0.10541754 
  672000     -1792110    13588.835     905.6819    77.104551    89.033358    81.351231    1804.0258  0.048393961  0.047816645  0.054750334   0.15096094  0.033689071      0.03366  0.040846794   0.10819587 
  673000   -1792258.1    13554.692   -612.51472    77.104551    89.033358    81.351231    1799.4932  0.048329549  0.047509098  0.054601775   0.15044042  0.032389509  0.033106098  0.039824978   0.10532058 
  674000   -1792239.9    13604.616   -280.10124    77.104551    89.033358    81.351231    1806.1209  0.048913981   0.04696652  0.056144059   0.15202456  0.033600786  0.032744334  0.040637713   0.10698283 
  675000   -1792262.8    13560.251   -591.42737    77.104551    89.033358    81.351231     1800.231  0.048164377  0.047939948  0.054489204   0.15059353  0.033092332  0.032988106  0.040896774   0.10697721 
  676000   -1792205.3     13557.35   -635.30038    77.104551    89.033358    81.351231     1799.846  0.048616937   0.04792822  0.055694254   0.15223941  0.033634634  0.033894783  0.040854352   0.10838377 
  677000   -1792271.4     13642.94   -607.04244    77.104551    89.033358    81.351231    1811.2087  0.048572153  0.047070184  0.054850088   0.15049242  0.033459502  0.032942453  0.041219961   0.10762191 
  678000   -1792322.2    13568.931   -1063.9633    77.104551    89.033358    81.351231    1801.3835  0.047549771   0.04842293  0.054296782   0.15026948  0.032548346  0.034228884  0.039916479   0.10669371 
  679000     -1792291    13518.411    -425.6661    77.104551    89.033358    81.351231    1794.6765  0.048857954  0.047784766  0.056286725   0.15292945  0.033763494  0.033703448  0.041736921   0.10920386 
  680000   -1792183.8    13545.471    41.537146    77.104551    89.033358    81.351231     1798.269  0.047445858  0.047914062  0.054845947   0.15020587  0.032616846  0.033236897  0.040524428   0.10637817 
  681000   -1792182.9    13604.985   -254.83934    77.104551    89.033358    81.351231    1806.1698  0.048141953  0.048354248  0.055494027   0.15199023  0.033329877  0.033517286  0.041119964   0.10796713 
  682000   -1792240.8    13543.465   -404.74678    77.104551    89.033358    81.351231    1798.0026  0.047116045  0.048408721  0.054318891   0.14984366  0.032635697  0.034749662   0.04045638   0.10784174 
  683000   -1792230.2    13566.533   -639.40532    77.104551    89.033358    81.351231     1801.065  0.047600964   0.04784976  0.054540023   0.14999075  0.032376165  0.033748295  0.040138544     0.106263 
  684000   -1792254.8    13514.168   -519.64357    77.104551    89.033358    81.351231    1794.1132  0.049578073   0.04640373  0.056168713   0.15215052  0.034309622  0.033347664  0.042043541   0.10970083 
  685000   -1792236.8    13539.603   -586.68739    77.104551    89.033358    81.351231    1797.4899  0.047465874  0.048152189  0.054560466   0.15017853   0.03281697  0.034039638  0.040175106   0.10703171 
  686000   -1792254.1    13592.723   -100.57626    77.104551    89.033358    81.351231    1804.5421  0.048146181   0.04788765  0.055827606   0.15186144  0.032732505  0.033814715  0.041077911   0.10762513 
  687000     -1792265    13595.345    181.75664    77.104551    89.033358    81.351231      1804.89  0.047238836  0.047430118  0.055877174   0.15054613  0.032307729  0.033192655  0.041917346   0.10741773 
  688000   -1792256.6    13560.405   -179.51919    77.104551    89.033358    81.351231    1800.2515  0.048483957  0.047223699  0.055266364   0.15097402  0.033004838  0.033561471  0.040332333   0.10689864 
  689000   -1792223.7    13630.954   -332.52853    77.104551    89.033358    81.351231    1809.6175  0.047986534  0.047440577  0.057518344   0.15294545  0.033007617  0.033681875  0.043588368   0.11027786 
  690000   -1792173.2    13568.284    -195.7106    77.104551    89.033358    81.351231    1801.2975  0.047254825  0.048244172   0.05476961   0.15026861  0.031863521  0.033518415  0.040515332   0.10589727 
  691000   -1792264.8     13617.15   -348.80755    77.104551    89.033358    81.351231    1807.7848  0.048394416  0.047599666  0.054964982   0.15095906  0.033702187  0.033682264  0.040376945    0.1077614 
  692000     -1792183    13502.129   -439.72691    77.104551    89.033358    81.351231    1792.5149  0.047700493  0.047546059  0.055381157   0.15062771  0.032583318  0.033352745  0.041066345   0.10700241 
  693000   -1792161.1    13596.796    193.18907    77.104551    89.033358    81.351231    1805.0828  0.047668424  0.048189928   0.05491076   0.15076911  0.032446117  0.033241418  0.041447266    0.1071348 
  694000     -1792239    13578.442    -537.2342    77.104551    89.033358    81.351231    1802.6461   0.04808069  0.047655655  0.054954333   0.15069068  0.032737581  0.033831867  0.040815224   0.10738467 
  695000   -1792262.2    13598.266   -462.56642    77.104551    89.033358    81.351231    1805.2778  0.048035969  0.047926177  0.054484533   0.15044668  0.033432538  0.033398089  0.040552161   0.10738279 
  696000   -1792218.5    13552.608    290.98407    77.104551    89.033358    81.351231    1799.2165  0.048523356  0.048351842  0.054323876   0.15119907  0.033546246  0.033858238  0.040706255   0.10811074 
  697000     -1792188    13649.518    14.827478    77.104551    89.033358    81.351231    1812.0821  0.047651226  0.047019863  0.054733723   0.14940481  0.033205996  0.033482137    0.0403207   0.10700883 
  698000   -1792192.7     13611.57    489.12104    77.104551    89.033358    81.351231    1807.0442  0.047675427  0.047800448   0.05554719   0.15102307   0.03262385  0.033771503  0.040903734   0.10729909 
  699000   -1792156.2    13556.591    130.55828    77.104551    89.033358    81.351231    1799.7452  0.047509494   0.04751217  0.056622613   0.15164428  0.032546262  0.033465926  0.041704667   0.10771685 
  700000   -1792261.5    13581.409   -453.77203    77.104551    89.033358    81.351231      1803.04  0.047409916  0.048399569  0.055123481   0.15093297    0.0321525  0.033565832  0.039877979   0.10559631 
  701000   -1792188.3    13510.882    185.14156    77.104551    89.033358    81.351231    1793.6769  0.047605865  0.047970296  0.057670732   0.15324689  0.032603711  0.033686398  0.042311524   0.10860163 
  702000   -1792210.9     13546.94   -143.38694    77.104551    89.033358    81.351231     1798.464  0.047740659  0.048104863  0.054828054   0.15067358  0.032498278  0.033950499  0.040911499   0.10736028 
  703000   -1792299.7    13634.671   -381.20865    77.104551    89.033358    81.351231    1810.1109  0.048633569  0.047439224  0.054967255   0.15104005  0.033475941    0.0332512  0.040017258    0.1067444 
  704000   -1792270.6    13588.552   -570.26823    77.104551    89.033358    81.351231    1803.9883  0.047718625  0.047426184  0.056917452   0.15206226  0.032293826  0.033054699  0.042499006   0.10784753 
  705000   -1792203.8     13423.29   -91.842211    77.104551    89.033358    81.351231    1782.0485  0.047980776  0.047536086  0.054166782   0.14968364  0.033149091  0.033474799  0.040453649   0.10707754 
  706000   -1792286.4    13517.966    222.21826    77.104551    89.033358    81.351231    1794.6175  0.048076821  0.048322815  0.056260857   0.15266049  0.033222121  0.034821877  0.040788986   0.10883298 
  707000   -1792251.6    13602.517   -508.43156    77.104551    89.033358    81.351231    1805.8422  0.047765232  0.048260559  0.056358168   0.15238396  0.033294911  0.034017341  0.042038929   0.10935118 
  708000   -1792143.5    13582.833    605.58495    77.104551    89.033358    81.351231     1803.229  0.048471387  0.047829995  0.055293129   0.15159451  0.033784793  0.033025557  0.040444166   0.10725452 
  709000   -1792135.4    13534.264    164.61821    77.104551    89.033358    81.351231    1796.7812  0.048326372  0.049461301  0.056641618   0.15442929  0.033372917  0.034117536  0.041626475   0.10911693 
  710000   -1792285.4    13564.333   -610.59941    77.104551    89.033358    81.351231     1800.773  0.048153181  0.048859501  0.056766061   0.15377874  0.033028779  0.034400492  0.041683819   0.10911309 
  711000   -1792157.3    13546.596   -130.32958    77.104551    89.033358    81.351231    1798.4182  0.048189958  0.049265506  0.054929039    0.1523845  0.032515686  0.034204325  0.039820095   0.10654011 
  712000   -1792210.5    13618.655   -392.68094    77.104551    89.033358    81.351231    1807.9846  0.047061548  0.048645527  0.054702654   0.15040973  0.032592687   0.03397258  0.040226985   0.10679225 
  713000   -1792216.5    13495.407     -1000.05    77.104551    89.033358    81.351231    1791.6225  0.047835408  0.049322046  0.056301586   0.15345904  0.032478029   0.03429639  0.041993544   0.10876796 
  714000   -1792290.2    13586.802    -428.7998    77.104551    89.033358    81.351231    1803.7559  0.047649486  0.047670296  0.055191376   0.15051116  0.032987471  0.033786008  0.040415647   0.10718913 
  715000   -1792288.8    13550.473   -557.46114    77.104551    89.033358    81.351231    1798.9329  0.048130088  0.047118092  0.054879555   0.15012774  0.033934011  0.033029601  0.040426085    0.1073897 
  716000     -1792150    13590.606    291.22227    77.104551    89.033358    81.351231     1804.261  0.047318221  0.048632327  0.056121316   0.15207186    0.0330451   0.03464765  0.042021669   0.10971442 
  717000   -1792178.3    13535.449    38.416352    77.104551    89.033358    81.351231    1796.9385  0.046526629  0.048262218  0.055675217   0.15046406  0.032340284  0.033690677  0.040527426   0.10655839 
  718000   -1792319.3    13602.742   -780.63458    77.104551    89.033358    81.351231    1805.8722   0.04885227  0.047829279  0.056116074   0.15279762  0.033757564  0.033378853  0.040775887    0.1079123 
  719000   -1792216.5     13571.46   -199.94997    77.104551    89.033358    81.351231    1801.7192  0.048450578  0.049642572  0.057617577   0.15571073    0.0328531   0.03443003   0.04301088   0.11029401 
  720000   -1792218.9    13545.031   -703.30416    77.104551    89.033358    81.351231    1798.2106  0.049096935  0.048834392  0.055167321   0.15309865   0.03354212  0.033605116  0.039980216   0.10712745 
  721000   -1792217.5     13513.96   -40.088625    77.104551    89.033358    81.351231    1794.0856   0.04833123  0.048303043  0.055611027    0.1522453   0.03329097  0.032844373  0.040604333   0.10673968 
  722000   -1792237.9    13606.872   -429.06307    77.104551    89.033358    81.351231    1806.4204  0.048087002    0.0489523   0.05516803   0.15220733  0.032767426  0.034146213  0.040356125   0.10726976 
  723000   -1792125.6    13551.416    194.49594    77.104551    89.033358    81.351231    1799.0582  0.048737981  0.049152794  0.054779432   0.15267021  0.033275964  0.033429225  0.040582242   0.10728743 
  724000   -1792213.5    13545.456    -210.2666    77.104551    89.033358    81.351231     1798.267  0.048751292  0.049401614   0.05657915   0.15473206  0.033604581  0.034202807  0.042174599   0.10998199 
  725000   -1792192.1    13477.559    215.81354    77.104551    89.033358    81.351231     1789.253  0.047899785  0.049759184  0.055039388   0.15269836  0.032967197  0.034007553  0.039850406   0.10682516 
  726000   -1792249.7    13545.045   -371.33706    77.104551    89.033358    81.351231    1798.2124  0.048056642  0.049399624  0.055372064   0.15282833  0.033133573  0.033328648  0.040406417   0.10686864 
  727000   -1792222.7    13571.882    260.37666    77.104551    89.033358    81.351231    1801.7752  0.049350663  0.049471083  0.055838105   0.15465985  0.034219739  0.033434278   0.04117832   0.10883234 
  728000   -1792189.3     13490.76    159.91141    77.104551    89.033358    81.351231    1791.0056   0.04840098  0.050316311  0.055392505    0.1541098  0.033367939  0.034338775  0.040574484    0.1082812 
  729000   -1792225.7    13577.748   -102.39773    77.104551    89.033358    81.351231     1802.554   0.04856062  0.049362868  0.056134662   0.15405815  0.033270716  0.033446829  0.041133707   0.10785125 
  730000   -1792266.5    13550.554    -641.7863    77.104551    89.033358    81.351231    1798.9438  0.048336307  0.049302728  0.055475285   0.15311432  0.033889764  0.032945414  0.040748836   0.10758401 
  731000   -1792258.1    13588.434   -301.17998    77.104551    89.033358    81.351231    1803.9727  0.048284369  0.050402499   0.05591867   0.15460554  0.033519559  0.034181411  0.041459765   0.10916073 
  732000   -1792184.7     13527.64    329.75638    77.104551    89.033358    81.351231    1795.9017  0.048092487  0.049563273  0.056344062   0.15399982  0.032177138   0.03385097  0.041145646   0.10717375 
  733000   -1792228.6    13555.925     81.30601    77.104551    89.033358    81.351231    1799.6567   0.04870938  0.049075726  0.055175671   0.15296078  0.033953436  0.033623467  0.040780704   0.10835761 
  734000   -1792263.1    13699.226   -588.49295    77.104551    89.033358    81.351231    1818.6811  0.049512246   0.04892251  0.054951842    0.1533866  0.034551725  0.033666027  0.039054668   0.10727242 
  735000   -1792152.2    13554.611     172.4629    77.104551    89.033358    81.351231    1799.4824  0.048833838  0.049493163  0.056064642   0.15439164  0.033680106  0.033673855  0.040255462   0.10760942 
  736000   -1792237.8    13634.895   -83.066406    77.104551    89.033358    81.351231    1810.1406  0.049881867  0.049755486  0.056259668   0.15589702  0.034027984  0.034231754  0.041547899   0.10980764 
  737000   -1792075.9    13563.716    682.39658    77.104551    89.033358    81.351231    1800.6912  0.049116223  0.050068865  0.055202105   0.15438719  0.033021354  0.033209971  0.040416436   0.10664776 
  738000   -1792191.7    13570.935   -156.57802    77.104551    89.033358    81.351231    1801.6495  0.048914916  0.049362851  0.056635135    0.1549129  0.033167385  0.034263677  0.042190739    0.1096218 
  739000   -1792289.1    13568.332   -254.40065    77.104551    89.033358    81.351231    1801.3039  0.048967735  0.048337031  0.055978717   0.15328348  0.033732241  0.033488194  0.041311482   0.10853192 
  740000   -1792177.9     13582.11   -233.02135    77.104551    89.033358    81.351231    1803.1331  0.048284566  0.049710184  0.055645121   0.15363987  0.033048052  0.034213924  0.041180225    0.1084422 
  741000   -1792213.5    13555.275    18.765589    77.104551    89.033358    81.351231    1799.5705  0.049316016  0.049643828  0.056543734   0.15550358  0.033988192  0.034287448   0.04189662   0.11017226 
  742000   -1792257.6    13608.657   -1089.8224    77.104551    89.033358    81.351231    1806.6574  0.047977084  0.049722005  0.054461761   0.15216085  0.032494177  0.033874348     0.039878   0.10624652 
  743000   -1792255.1    13548.953   -1038.4236    77.104551    89.033358    81.351231    1798.7313  0.049317425  0.049514171  0.056156406     0.154988  0.033226056   0.03385849  0.040447051    0.1075316 
  744000   -1792263.6    13605.516    -272.9257    77.104551    89.033358    81.351231    1806.2404  0.048618661  0.049174168  0.056550383   0.15434321  0.032902941  0.034477116  0.041584936   0.10896499 
  745000     -1792328    13571.818   -1318.6175    77.104551    89.033358    81.351231    1801.7666  0.049618817  0.049039632  0.055015328   0.15367378  0.033860617  0.033046786  0.040249095    0.1071565 
  746000   -1792198.7    13584.935   -427.04499    77.104551    89.033358    81.351231    1803.5081  0.049106455  0.049614378  0.055832858   0.15455369  0.033246319  0.033502049  0.040410927    0.1071593 
  747000   -1792188.1     13466.36    5.0203589    77.104551    89.033358    81.351231    1787.7663  0.048164679  0.050652621  0.055545849   0.15436315  0.031801837  0.035309369  0.040635874   0.10774708 
  748000   -1792244.6    13579.133   -222.73863    77.104551    89.033358    81.351231    1802.7378  0.049668696  0.048562932  0.055374092   0.15360572  0.033458992  0.032772018  0.040413391    0.1066444 
  749000   -1792172.9    13617.135   -52.950899    77.104551    89.033358    81.351231    1807.7829  0.049276814  0.048733018  0.055349245   0.15335908  0.033224695  0.034033365  0.040356445   0.10761451 
  750000   -1792195.6     13530.57   -150.80823    77.104551    89.033358    81.351231    1796.2908  0.048418436  0.048817233  0.056137165   0.15337283   0.03284836  0.033855023  0.041716134   0.10841952 
  751000   -1792213.2    13461.534   -686.41365    77.104551    89.033358    81.351231    1787.1257  0.047751728  0.048208076  0.056531426   0.15249123  0.031974552  0.033693417  0.040887474   0.10655544 
  752000   -1792221.3    13523.876   -266.60663    77.104551    89.033358    81.351231    1795.4021  0.048422844  0.048162423  0.055534579   0.15211985  0.033181258  0.032723264  0.040180352   0.10608487 
  753000   -1792204.5    13525.981   -67.960893    77.104551    89.033358    81.351231    1795.6815  0.048877062  0.048474645  0.056736993    0.1540887  0.032799294  0.033342287   0.04101537   0.10715695 
  754000     -1792197    13552.192   -31.602896    77.104551    89.033358    81.351231    1799.1612  0.048313472  0.048907641  0.055706505   0.15292762  0.032895857  0.033668387  0.040919204   0.10748345 
  755000   -1792245.6    13601.444    120.22387    77.104551    89.033358    81.351231    1805.6999  0.048647491  0.049422347  0.055865453   0.15393529  0.032963085  0.033661399  0.040082239   0.10670672 
  756000   -1792202.5    13615.067   -63.823401    77.104551    89.033358    81.351231    1807.5084  0.048558995  0.050120311  0.056399183   0.15507849  0.032707919  0.034638626  0.040885616   0.10823216 
  757000   -1792242.9     13578.41   -18.796973    77.104551    89.033358    81.351231    1802.6418  0.048347425  0.049827475   0.05462993   0.15280483  0.032647247   0.03328206  0.040013517   0.10594282 
  758000   -1792191.2    13490.243   -86.968139    77.104551    89.033358    81.351231     1790.937  0.049703568  0.049564623  0.055886533   0.15515472  0.033005669  0.033199566  0.040176674   0.10638191 
  759000   -1792280.6    13559.226    94.957105    77.104551    89.033358    81.351231     1800.095  0.048143056  0.048924922  0.055689259   0.15275724  0.032625824  0.033588415  0.040478866    0.1066931 
  760000   -1792271.9    13549.128   -140.02875    77.104551    89.033358    81.351231    1798.7545   0.04885047  0.049780622   0.05507703   0.15370812  0.032606087  0.033752245  0.039087598   0.10544593 
  761000   -1792156.4    13538.648   -246.57427    77.104551    89.033358    81.351231    1797.3631  0.049946549   0.04953703   0.05652395   0.15600753  0.033389702  0.033554926  0.040799976    0.1077446 
  762000   -1792237.4    13571.146   -577.53166    77.104551    89.033358    81.351231    1801.6775  0.047646239  0.049519758  0.055508825   0.15267482  0.032578688  0.033720644  0.039941666     0.106241 
  763000   -1792265.1    13592.562    118.37256    77.104551    89.033358    81.351231    1804.5206  0.048578349  0.049143972  0.055906189   0.15362851  0.033001201  0.033807664  0.041031381   0.10784025 
  764000   -1792319.5    13626.562   -384.17825    77.104551    89.033358    81.351231    1809.0344  0.048743798  0.048974872  0.054593268   0.15231194  0.032390497  0.034192384  0.039347946   0.10593083 
  765000   -1792222.3    13609.133    -243.2441    77.104551    89.033358    81.351231    1806.7206  0.048933357  0.049345119  0.055856359   0.15413484  0.032833856   0.03393711  0.040475994   0.10724696 
  766000   -1792229.5     13570.73   -127.48733    77.104551    89.033358    81.351231    1801.6223  0.048609829  0.048284848  0.055675698   0.15257037  0.032863254  0.033560419   0.04092152   0.10734519 
  767000   -1792158.8    13636.496   -658.11423    77.104551    89.033358    81.351231    1810.3533  0.048980339  0.048564219  0.056016472   0.15356103  0.033794285  0.033671408  0.040305638   0.10777133 
  768000   -1792238.9    13535.369   -68.977915    77.104551    89.033358    81.351231    1796.9278   0.04833802  0.048882757  0.055507848   0.15272863  0.033099902  0.033626236  0.040441338   0.10716748 
  769000   -1792315.1    13587.926   -729.28929    77.104551    89.033358    81.351231    1803.9052  0.047771445  0.048932563  0.056534786   0.15323879  0.032627793  0.033005865  0.041089458   0.10672312 
  770000   -1792256.9    13627.071   -552.32025    77.104551    89.033358    81.351231    1809.1019  0.048680682  0.048626397  0.054841862   0.15214894  0.033046259  0.033716191  0.040092495   0.10685494 
  771000     -1792189    13586.337    762.16414    77.104551    89.033358    81.351231    1803.6942  0.048351155  0.048425272  0.056059047   0.15283547  0.032887473  0.033970988  0.039935528   0.10679399 
  772000   -1792192.9    13585.538    213.86276    77.104551    89.033358    81.351231    1803.5881  0.047772842  0.050047979  0.056765534   0.15458636   0.03147616  0.033628415  0.040798954   0.10590353 
  773000   -1792245.4    13542.264   -581.30222    77.104551    89.033358    81.351231    1797.8431   0.04826128  0.048849212  0.056764774   0.15387527  0.032629382  0.033571309  0.041756391   0.10795708 
  774000   -1792223.6    13571.935   -487.03894    77.104551    89.033358    81.351231    1801.7823  0.048518618  0.049315912  0.056392409   0.15422694  0.032410436    0.0329449   0.04038212   0.10573746 
  775000   -1792277.5    13541.456   -283.23745    77.104551    89.033358    81.351231    1797.7359  0.049350935  0.049701677  0.056924517   0.15597713  0.032913325   0.03421978  0.042016584   0.10914969 
  776000   -1792202.7    13578.481    365.99596    77.104551    89.033358    81.351231    1802.6513  0.048290339  0.049434539  0.055585614   0.15331049   0.03283387  0.033017573   0.04051642   0.10636786 
  777000   -1792183.5    13549.785   -463.23233    77.104551    89.033358    81.351231    1798.8417  0.049139861  0.049883084  0.056723241   0.15574619  0.033088773  0.034146973  0.040949643   0.10818539 
  778000   -1792185.7    13544.542   -449.84851    77.104551    89.033358    81.351231    1798.1456  0.048913322  0.050598242  0.056579106   0.15609067  0.032844217  0.033934888  0.040242035   0.10702114 
  779000   -1792299.9    13556.742   -1184.6925    77.104551    89.033358    81.351231    1799.7653  0.048087785  0.049950852  0.057140193   0.15517883  0.031800341  0.033953597  0.041196195   0.10695013 
  780000   -1792306.1    13589.537   -723.55133    77.104551    89.033358    81.351231    1804.1191  0.049012919  0.049657357  0.057383594   0.15605387  0.033265691  0.033832291  0.041535157   0.10863314 
  781000   -1792193.8    13567.589    176.71255    77.104551    89.033358    81.351231    1801.2052  0.049563554  0.049756153  0.056129386   0.15544909  0.033167167  0.034233613  0.039350623    0.1067514 
  782000   -1792192.4    13516.046   -155.01058    77.104551    89.033358    81.351231    1794.3626  0.048870085  0.049606504  0.056947012    0.1554236  0.033226197  0.033185194  0.040507057   0.10691845 
  783000   -1792195.2    13530.655   -372.69729    77.104551    89.033358    81.351231     1796.302  0.048629545  0.049468992  0.055392555   0.15349109  0.033158758  0.033059309  0.040021604   0.10623967 
  784000   -1792264.1    13627.567   -534.39909    77.104551    89.033358    81.351231    1809.1678  0.049345995  0.050288074  0.056525838   0.15615991  0.032818067  0.034469294  0.040743766   0.10803113 
  785000   -1792293.4     13506.27   -742.50044    77.104551    89.033358    81.351231    1793.0647  0.049458248  0.048906272  0.055886784    0.1542513  0.032764564  0.032894415   0.04008316   0.10574214 
  786000   -1792203.3    13589.618    24.242283    77.104551    89.033358    81.351231    1804.1299  0.048868345  0.049575985  0.055831422   0.15427575  0.032610206   0.03322987  0.040792382   0.10663246 
  787000     -1792197    13595.974   -278.52017    77.104551    89.033358    81.351231    1804.9736  0.050116264   0.04986774   0.05748313   0.15746713  0.033347279  0.033117003  0.040980366   0.10744465 
  788000   -1792183.4    13517.654   -184.08041    77.104551    89.033358    81.351231     1794.576  0.048798622  0.049595236  0.055221036   0.15361489  0.033058685  0.033166763  0.039651164   0.10587661 
  789000   -1792187.4    13543.547    367.32441    77.104551    89.033358    81.351231    1798.0135  0.048459365  0.049535691  0.057437136   0.15543219  0.032297562  0.034160509  0.041331225    0.1077893 
  790000   -1792234.4    13497.396   -372.65719    77.104551    89.033358    81.351231    1791.8866  0.048942785  0.050101683   0.05596123    0.1550057  0.033146992  0.033931899  0.040518196   0.10759709 
  791000   -1792187.1     13516.11   -452.13931    77.104551    89.033358    81.351231     1794.371  0.048660865  0.049695391  0.055692589   0.15404884  0.031887276  0.034240649  0.039956904   0.10608483 
  792000   -1792279.9    13580.592   -505.49269    77.104551    89.033358    81.351231    1802.9315  0.048254338  0.049842278  0.055631975   0.15372859  0.033170707  0.033778427  0.040193306   0.10714244 
  793000   -1792170.7    13600.597    11.904524    77.104551    89.033358    81.351231    1805.5874  0.048745731  0.049606963   0.05673696   0.15508965  0.032110492  0.033515024  0.040989024   0.10661454 
  794000   -1792138.8    13517.317    93.653554    77.104551    89.033358    81.351231    1794.5313  0.049408375  0.048992093  0.057267283   0.15566775  0.032275917  0.033026654  0.041418116   0.10672069 
  795000   -1792180.5    13541.447    -207.1008    77.104551    89.033358    81.351231    1797.7348  0.049431218  0.048982447  0.055864717   0.15427838  0.032912023   0.03360918  0.040426838   0.10694804 
  796000   -1792182.4    13548.323   -110.70536    77.104551    89.033358    81.351231    1798.6476  0.049390686  0.049225743  0.056788609   0.15540504   0.03270532  0.033768856  0.041614458   0.10808863 
  797000   -1792117.7    13608.728    411.26595    77.104551    89.033358    81.351231    1806.6668  0.048473255  0.049929637  0.058465681   0.15686857   0.03244196   0.03364057  0.042391095   0.10847362 
  798000     -1792216    13574.655    143.38046    77.104551    89.033358    81.351231    1802.1434  0.048460023  0.049995042  0.056554835    0.1550099  0.032358187  0.033766197  0.040668645   0.10679303 
  799000   -1792222.1    13528.709   -739.84207    77.104551    89.033358    81.351231    1796.0436  0.049047026  0.049977977  0.056976526   0.15600153  0.033458206  0.034318992  0.040695432   0.10847263 
  800000   -1792212.9    13553.695    230.55554    77.104551    89.033358    81.351231    1799.3607  0.049389398  0.048991534  0.056141704   0.15452264  0.032954614   0.03323222  0.040325402   0.10651224 
  801000   -1792233.6    13560.633   -722.48208    77.104551    89.033358    81.351231    1800.2819  0.048800231  0.048825907  0.056104362    0.1537305  0.033346016  0.033310339  0.041186039   0.10784239 
  802000   -1792304.5    13605.208   -228.07861    77.104551    89.033358    81.351231    1806.1995  0.049253981  0.048979142  0.056925045   0.15515817  0.033530764  0.033507014  0.041076693   0.10811447 
  803000   -1792197.5    13537.663   -614.74371    77.104551    89.033358    81.351231    1797.2323  0.048597601  0.048845174  0.055735669   0.15317844  0.032931871  0.033409872  0.040559651   0.10690139 
  804000   -1792197.4    13554.892    -156.0694    77.104551    89.033358    81.351231    1799.5197  0.047745229  0.049404874   0.05678335   0.15393345  0.032561584  0.033819736   0.04099656   0.10737788 
  805000   -1792143.5    13546.525    22.924911    77.104551    89.033358    81.351231    1798.4088  0.048228586  0.048689557  0.056011458    0.1529296  0.032478581  0.033109124  0.040621967   0.10620967 
  806000   -1792156.1    13542.155    74.680835    77.104551    89.033358    81.351231    1797.8287   0.04755993  0.049036761   0.05694372   0.15354041  0.032508808  0.033558117  0.041379462   0.10744639 
  807000   -1792228.5    13582.523   -497.66827    77.104551    89.033358    81.351231    1803.1879  0.048590045  0.049616862  0.056473306   0.15468021  0.032825083  0.033567941  0.040998083   0.10739111 
  808000   -1792193.2     13564.28   -303.16911    77.104551    89.033358    81.351231     1800.766  0.047235299  0.049391119  0.054886131   0.15151255  0.033407439   0.03338459  0.040113105   0.10690513 
  809000   -1792248.8    13549.302   -65.953756    77.104551    89.033358    81.351231    1798.7776  0.048402502  0.049761549    0.0570222   0.15518625  0.033078047  0.033770439  0.041014602   0.10786309 
  810000   -1792230.4    13623.261   -37.829821    77.104551    89.033358    81.351231    1808.5962  0.047777528   0.04892658  0.054556863   0.15126097  0.032331454  0.033117735  0.038592166   0.10404135 
  811000     -1792230    13543.675    -324.9743    77.104551    89.033358    81.351231    1798.0305   0.04807171  0.048298558   0.05540376   0.15177403  0.032949463  0.032705667  0.040089226   0.10574436 
  812000   -1792248.9    13527.391   -183.20381    77.104551    89.033358    81.351231    1795.8687  0.048020057  0.049898823   0.05714602    0.1550649  0.033040175  0.033962895  0.041604009   0.10860708 
  813000   -1792287.4    13550.351   -479.14213    77.104551    89.033358    81.351231    1798.9169  0.047463169  0.049517153  0.054878309   0.15185863  0.032682701  0.033088271  0.039565744   0.10533672 
  814000   -1792263.9     13586.38   -418.09792    77.104551    89.033358    81.351231    1803.6999  0.048826539  0.049312455  0.056723709    0.1548627  0.033257589   0.03286905  0.040668272   0.10679491 
  815000   -1792247.7    13621.523   -800.62807    77.104551    89.033358    81.351231    1808.3654  0.048258207   0.05015486  0.056180379   0.15459345  0.032415573  0.034312592  0.040243008   0.10697117 
  816000   -1792130.9    13737.834   -47.566529    77.104551    89.033358    81.351231    1823.8067  0.048134584  0.048882559  0.056309204   0.15332635  0.033430407  0.033136697  0.040674148   0.10724125 
  817000   -1792221.1    13475.297   -472.49358    77.104551    89.033358    81.351231    1788.9528  0.047622755  0.048880607  0.056133844   0.15263721  0.032394846  0.033530663   0.04039799    0.1063235 
  818000   -1792189.7    13574.197   -112.18108    77.104551    89.033358    81.351231    1802.0826  0.046869287  0.049668985  0.055871939   0.15241021  0.031862592  0.033652555  0.040409855     0.105925 
  819000   -1792185.3    13593.225     672.6489    77.104551    89.033358    81.351231    1804.6086   0.04814865  0.049642281  0.055963698   0.15375463  0.033125109  0.033495836  0.039761951    0.1063829 
  820000   -1792208.1    13602.545   -83.866548    77.104551    89.033358    81.351231    1805.8459  0.048597038  0.049642682  0.056072831   0.15431255  0.032919413  0.033243415  0.040936091   0.10709892 
  821000   -1792187.2     13595.46   -103.04389    77.104551    89.033358    81.351231    1804.9054  0.048853067  0.050041274  0.057787327   0.15668167  0.033070038  0.033978526  0.042080582   0.10912915 
  822000   -1792280.2    13606.934   -1004.9512    77.104551    89.033358    81.351231    1806.4287  0.047403808   0.04882779  0.057367303    0.1535989  0.031728281  0.033356669  0.041037683   0.10612263 
  823000   -1792314.1    13549.962   -671.27625    77.104551    89.033358    81.351231    1798.8651  0.047556183  0.049360228  0.056844256   0.15376067  0.031874431  0.033192716  0.040603781   0.10567093 
  824000   -1792214.3    13561.987   -518.97654    77.104551    89.033358    81.351231    1800.4616  0.048638684  0.049837439  0.057451662   0.15592779  0.033174767  0.034876871   0.04176955   0.10982119 
  825000   -1792155.2    13477.146    101.00465    77.104551    89.033358    81.351231    1789.1983  0.048197552  0.050178751  0.056321577   0.15469788  0.032644263  0.034271299  0.040259038    0.1071746 
  826000   -1792261.4    13513.672   -590.36834    77.104551    89.033358    81.351231    1794.0474  0.048768214  0.049720604  0.055966968   0.15445579  0.033237979  0.033779311  0.039644644   0.10666193 
  827000   -1792213.4    13575.782   -408.28867    77.104551    89.033358    81.351231     1802.293  0.049027032  0.049864429  0.056389323   0.15528078  0.033783524  0.033704058  0.040421223    0.1079088 
  828000   -1792270.1    13556.199   -777.52693    77.104551    89.033358    81.351231    1799.6932  0.048262721  0.050499856  0.056088788   0.15485137  0.032775767  0.033958147  0.040373742   0.10710766 
  829000   -1792160.4    13572.195   -226.98702    77.104551    89.033358    81.351231    1801.8168  0.049761284  0.049288517  0.057747081   0.15679688  0.033851433  0.033051188   0.04213086   0.10903348 
  830000   -1792106.1    13455.917   -82.582217    77.104551    89.033358    81.351231      1786.38  0.049418385  0.049811111  0.057018116   0.15624761  0.033569836  0.033368651  0.040502812    0.1074413 
  831000   -1792282.1    13553.042   -624.82784    77.104551    89.033358    81.351231    1799.2741  0.048907663  0.050268121  0.056932608   0.15610839  0.032651344  0.034299183  0.040960188   0.10791071 
  832000   -1792268.9    13550.104   -871.22745    77.104551    89.033358    81.351231    1798.8841  0.049380103  0.049337031  0.056583101   0.15530024  0.033790878  0.032811942  0.041067892   0.10767071 
  833000   -1792249.3    13585.682   -572.93846    77.104551    89.033358    81.351231    1803.6072  0.048817677  0.049410283  0.055397627   0.15362559   0.03343889  0.033747901  0.040078811    0.1072656 
  834000   -1792197.6    13605.301    169.40463    77.104551    89.033358    81.351231    1806.2118  0.047898296  0.050671362  0.056731731   0.15530139  0.032783973  0.035597355  0.041119856   0.10950118 
  835000   -1792248.1    13554.362    50.360651    77.104551    89.033358    81.351231    1799.4493   0.04830362  0.050534063  0.056131303   0.15496899  0.033299564  0.035213589  0.040170584   0.10868374 
  836000   -1792227.5    13526.421   -119.36917    77.104551    89.033358    81.351231    1795.7399  0.050032963  0.049384158  0.056274755   0.15569188  0.034676011  0.034240596  0.040383886   0.10930049 
  837000   -1792329.4    13539.189   -1070.2502    77.104551    89.033358    81.351231    1797.4349  0.047791314  0.050242495  0.056816747   0.15485056  0.032459711  0.034891874  0.040713803   0.10806539 
  838000   -1792286.6    13583.817    -47.98974    77.104551    89.033358    81.351231    1803.3597  0.048223388  0.051539457  0.057598004   0.15736085  0.032733061  0.035447666  0.041295251   0.10947598 
  839000   -1792195.1    13541.631    -246.5095    77.104551    89.033358    81.351231    1797.7591  0.049519663  0.049324755  0.057193765   0.15603818  0.033784926  0.034162412  0.041694607   0.10964195 
  840000   -1792334.6    13552.772   -1142.3527    77.104551    89.033358    81.351231    1799.2382  0.047969115  0.049620482  0.056135765   0.15372536  0.032634181  0.033915524  0.040576583   0.10712629 
  841000   -1792216.8    13559.318    189.89014    77.104551    89.033358    81.351231    1800.1073  0.050149442  0.051186852  0.057823613   0.15915991  0.034386304   0.03583906  0.042068543   0.11229391 
  842000   -1792217.5    13470.294   -799.29945    77.104551    89.033358    81.351231    1788.2886  0.049313183  0.049748387  0.055446713   0.15450828  0.033338606    0.0340477  0.039393986   0.10678029 
  843000   -1792227.2    13585.862   -358.60681    77.104551    89.033358    81.351231    1803.6312  0.048313247  0.049207717  0.056634397   0.15415536  0.032289025  0.033685707  0.040043421   0.10601815 
  844000   -1792284.4    13545.443   -658.93745    77.104551    89.033358    81.351231    1798.2653    0.0485941  0.050680825  0.057146491   0.15642142  0.033261095  0.034858019  0.041379049   0.10949816 
  845000   -1792178.9    13530.584    223.01352    77.104551    89.033358    81.351231    1796.2925   0.04877956  0.049104715  0.055196139   0.15308041  0.033526339  0.034630579  0.039560952   0.10771787 
  846000   -1792140.8    13474.943    60.390483    77.104551    89.033358    81.351231    1788.9058  0.049064569  0.050049088  0.058740246    0.1578539  0.033686257  0.034673847  0.042357331   0.11071743 
  847000   -1792235.2    13501.635   -611.58464    77.104551    89.033358    81.351231    1792.4493  0.048648633  0.049897776  0.057609997   0.15615641  0.032386296  0.035165512  0.041120333   0.10867214 
  848000   -1792151.2     13583.52    342.92885    77.104551    89.033358    81.351231    1803.3202  0.049421772  0.051780921  0.056517934   0.15772063  0.033904028  0.035560614   0.04043963   0.10990427 
  849000   -1792207.4    13529.919   -340.07745    77.104551    89.033358    81.351231    1796.2043  0.048882115  0.049856024  0.058260435   0.15699857   0.03334889  0.034259711  0.041823399     0.109432 
  850000   -1792250.6    13530.396   -309.78784    77.104551    89.033358    81.351231    1796.2676  0.048465573  0.049873113  0.056054794   0.15439348  0.032952702  0.034177038  0.040650661    0.1077804 
  851000   -1792266.8    13553.647   -334.79323    77.104551    89.033358    81.351231    1799.3543    0.0508926  0.050319217  0.056578455   0.15779027  0.034880598  0.035019925  0.040948084   0.11084861 
  852000   -1792254.4    13520.804   -934.94735    77.104551    89.033358    81.351231    1794.9942  0.049093877   0.04960261  0.056749374   0.15544586  0.033557337  0.034640731   0.04021177   0.10840984 
  853000   -1792238.8    13581.275    -38.98807    77.104551    89.033358    81.351231    1803.0222  0.047665282  0.049803893  0.056781638   0.15425081  0.033028529  0.034631138  0.041681744   0.10934141 
  854000   -1792202.6    13582.084    398.79478    77.104551    89.033358    81.351231    1803.1296  0.049423815  0.050059047  0.056484088   0.15596695  0.034194702  0.035153866  0.040073044   0.10942161 
  855000     -1792191    13558.166   -451.92463    77.104551    89.033358    81.351231    1799.9543   0.04791459  0.050144319  0.057007214   0.15506612  0.032937543  0.035044146  0.040556759   0.10853845 
  856000   -1792232.8    13578.074   -90.448385    77.104551    89.033358    81.351231    1802.5972  0.047892936  0.049333709  0.055987133   0.15321378  0.032620286  0.034638226  0.040447151   0.10770566 
  857000   -1792197.1    13575.867   -36.884339    77.104551    89.033358    81.351231    1802.3042  0.049245639  0.050212278  0.056327829   0.15578575  0.033850361  0.034501842  0.040219878   0.10857208 
  858000   -1792195.6    13595.465    67.880182    77.104551    89.033358    81.351231     1804.906  0.048891344   0.05024527  0.057446464   0.15658308  0.033514202  0.034503775  0.041117017   0.10913499 
  859000   -1792170.2    13561.558   -247.68632    77.104551    89.033358    81.351231    1800.4046  0.048210522  0.049139726  0.056462254    0.1538125   0.03263602  0.033671568  0.040788221   0.10709581 
  860000   -1792190.1    13589.357    227.61117    77.104551    89.033358    81.351231    1804.0952  0.047986623  0.049035921  0.056445044   0.15346759  0.033372219  0.033844119  0.040576832   0.10779317 
  861000   -1792208.6    13516.101   -47.248836    77.104551    89.033358    81.351231    1794.3699  0.048569596  0.049404189  0.058075419    0.1560492  0.034208312  0.034349658  0.041250932    0.1098089 
  862000   -1792317.6    13548.865   -567.10664    77.104551    89.033358    81.351231    1798.7195  0.047515243  0.049652376  0.055712677    0.1528803  0.033133503  0.033354136  0.040212415   0.10670005 
  863000   -1792197.6    13557.767   -657.21848    77.104551    89.033358    81.351231    1799.9013   0.04935412  0.049837077  0.056704866   0.15589606  0.033977615  0.034224422  0.040841496   0.10904353 
  864000   -1792168.4    13574.136   -117.26478    77.104551    89.033358    81.351231    1802.0745   0.04859569  0.050617186  0.057016659   0.15622953  0.033617789  0.035023309  0.040654355   0.10929545 
  865000   -1792123.9     13568.77     238.3057    77.104551    89.033358    81.351231     1801.362  0.047662455  0.050120133  0.057674014    0.1554566  0.032243539  0.034374418  0.040946127   0.10756408 
  866000   -1792163.1    13531.473    271.70204    77.104551    89.033358    81.351231    1796.4106  0.048835886  0.050788391  0.057500949   0.15712523  0.034095773  0.034442768  0.040783528   0.10932207 
  867000   -1792208.7    13508.723   -105.92741    77.104551    89.033358    81.351231    1793.3904   0.04820693  0.050021346  0.055925714   0.15415399  0.032761659  0.034126529  0.039580347   0.10646853 
  868000   -1792194.7    13591.037    16.315546    77.104551    89.033358    81.351231    1804.3182  0.049223923  0.051024954  0.056186003   0.15643488    0.0338079  0.035174938  0.040203002   0.10918584 
  869000   -1792182.1      13523.7   -415.82822    77.104551    89.033358    81.351231    1795.3787  0.049684754  0.049638111  0.056761352   0.15608422  0.033502342  0.033851667   0.04082522   0.10817923 
  870000   -1792177.7    13498.518   -3.5004167    77.104551    89.033358    81.351231    1792.0355  0.048357481   0.05045188  0.056550945   0.15536031  0.032454575  0.034241635  0.039554124   0.10625033 
  871000   -1792256.7    13550.659   -1368.0217    77.104551    89.033358    81.351231    1798.9577  0.048757776   0.05052461  0.056517415    0.1557998   0.03281492  0.033890191  0.040274709   0.10697982 
  872000     -1792203    13553.976    232.11129    77.104551    89.033358    81.351231    1799.3981  0.049001537  0.050523885   0.05760395   0.15712937  0.033637953  0.033772069  0.040616784   0.10802681 
  873000   -1792199.3    13582.118   -147.90861    77.104551    89.033358    81.351231    1803.1342  0.048631305  0.050916309  0.055501039   0.15504865   0.03278351  0.034099804  0.039467514   0.10635083 
  874000   -1792202.2    13509.837    51.379803    77.104551    89.033358    81.351231    1793.5383   0.04903627  0.050900008  0.057973578   0.15790986  0.033289313  0.034824914  0.041485444   0.10959967 
  875000   -1792169.9    13564.405    339.51389    77.104551    89.033358    81.351231    1800.7825  0.049500496  0.050800084  0.057280174   0.15758075  0.033541704  0.034569198  0.041049849   0.10916075 
  876000   -1792231.9    13609.119   -107.91723    77.104551    89.033358    81.351231    1806.7187  0.049646075  0.050005902   0.05633397   0.15598595  0.033996604   0.03353284  0.040161358    0.1076908 
  877000   -1792162.8    13546.193   -23.385001    77.104551    89.033358    81.351231    1798.3647  0.049555463   0.05042535  0.057177913   0.15715873  0.033497457  0.034531294    0.0411701   0.10919885 
  878000   -1792198.1     13611.77   -506.87659    77.104551    89.033358    81.351231    1807.0706  0.049265874  0.049810929  0.057311541   0.15638834  0.033778151  0.034443322  0.040100456   0.10832193 
  879000   -1792229.7    13487.367    88.836454    77.104551    89.033358    81.351231    1790.5552  0.049630168  0.049901007  0.056827188   0.15635836   0.03401253  0.033828054  0.039856112    0.1076967 
  880000   -1792213.3    13478.476   -31.221495    77.104551    89.033358    81.351231    1789.3748  0.049011974   0.04996647  0.057724955    0.1567034  0.033309259   0.03455731  0.040970925   0.10883749 
  881000   -1792252.1    13503.763   -461.89859    77.104551    89.033358    81.351231    1792.7319  0.049037461  0.050633334  0.057011327   0.15668212  0.032645096  0.034234516  0.040792286    0.1076719 
  882000   -1792167.6    13571.588   -56.993048    77.104551    89.033358    81.351231    1801.7362   0.04947891  0.050898452  0.056525839    0.1569032  0.033989092  0.034154524  0.039854638   0.10799825 
  883000   -1792223.4    13477.183    -360.7143    77.104551    89.033358    81.351231    1789.2032  0.049241318  0.050204218  0.056639995   0.15608553   0.03344808  0.033815509  0.040799703   0.10806329 
  884000   -1792199.9    13566.501    194.38769    77.104551    89.033358    81.351231    1801.0608  0.049250817  0.050555646  0.056590589   0.15639705  0.033204301  0.033844646  0.039758531   0.10680748 
  885000   -1792288.2    13600.533   -590.67891    77.104551    89.033358    81.351231    1805.5789  0.049474893  0.050480989  0.057789361   0.15774524   0.03365797  0.034360523  0.041501059   0.10951955 
  886000   -1792214.2    13584.014   -434.10904    77.104551    89.033358    81.351231    1803.3858  0.049200095  0.050115166  0.055608053   0.15492331  0.033088967  0.033993215  0.039378203   0.10646039 
  887000   -1792221.9    13571.229    171.17047    77.104551    89.033358    81.351231    1801.6885  0.049226262  0.051153112  0.056655352   0.15703473  0.033936428  0.034927808   0.03998112   0.10884536 
  888000   -1792188.1    13565.577   -83.540164    77.104551    89.033358    81.351231    1800.9382  0.050736622  0.050524842  0.057717212   0.15897868  0.035271831  0.034332197  0.041951057   0.11155509 
  889000   -1792249.4    13597.956   -790.07431    77.104551    89.033358    81.351231    1805.2368  0.049342786  0.050791742  0.056423605   0.15655813  0.033253398  0.034120855  0.039361818   0.10673607 
  890000     -1792244    13598.219   -108.89336    77.104551    89.033358    81.351231    1805.2716  0.049441497  0.050687706  0.057814787   0.15794399  0.033359757  0.033864424  0.040887967   0.10811215 
  891000   -1792143.9    13576.476    834.47183    77.104551    89.033358    81.351231    1802.3851  0.049659286  0.050593951  0.057239627   0.15749286  0.033104265  0.034371601  0.040781934    0.1082578 
  892000   -1792205.2    13547.875    426.24664    77.104551    89.033358    81.351231    1798.5881  0.049156221  0.051137611  0.057381648   0.15767548  0.033329449  0.034480462  0.040408192    0.1082181 
  893000   -1792236.3    13592.531    34.809749    77.104551    89.033358    81.351231    1804.5166   0.05018527  0.049449803  0.057459936   0.15709501  0.034190824   0.03379807   0.04074694   0.10873583 
  894000   -1792213.5    13538.641   -18.342699    77.104551    89.033358    81.351231    1797.3622  0.049188516  0.050538789  0.056456204   0.15618351  0.033349315  0.033914225   0.04007843   0.10734197 
  895000   -1792195.9    13557.817   -228.57095    77.104551    89.033358    81.351231    1799.9079  0.048305907  0.050514636  0.057465522   0.15628606  0.032591228  0.033479247  0.041185368   0.10725584 
  896000   -1792235.6    13504.738   -600.35898    77.104551    89.033358    81.351231    1792.8613  0.049152616  0.049221135  0.057216372   0.15559012  0.033533757  0.033976626  0.039818219    0.1073286 
  897000   -1792304.4    13577.331   -507.18672    77.104551    89.033358    81.351231    1802.4986  0.049754374  0.049409539  0.057135233   0.15629915  0.034128764  0.033749603  0.040008594   0.10788696 
  898000   -1792223.5    13575.321   -170.33786    77.104551    89.033358    81.351231    1802.2317  0.049157433  0.049939663  0.057153384   0.15625048   0.03316498  0.034797043  0.040332795   0.10829482 
  899000   -1792311.5    13533.938   -657.83949    77.104551    89.033358    81.351231    1796.7379  0.047603116  0.049481672   0.05620665   0.15329144  0.032397995  0.034116481  0.040128727    0.1066432 
  900000   -1792160.1    13581.848    170.80149    77.104551    89.033358    81.351231    1803.0983  0.050186388  0.050234936  0.058240472    0.1586618  0.034067965  0.033952731  0.041677428   0.10969812 
  901000   -1792310.8    13622.851   -736.73927    77.104551    89.033358    81.351231    1808.5417  0.049139695  0.050131222  0.057082302   0.15635322   0.03332739  0.034363404  0.040564479   0.10825527 
  902000   -1792154.2    13616.277   -8.2675123    77.104551    89.033358    81.351231     1807.669  0.049947254  0.050018898  0.057636059   0.15760221  0.034107783  0.034503903  0.040938793   0.10955048 
  903000   -1792216.3    13561.515   -371.06718    77.104551    89.033358    81.351231    1800.3989   0.04937976  0.050303962  0.057012743   0.15669646  0.032897499  0.033765989  0.040310141   0.10697363 
  904000   -1792155.6     13603.26   -142.93759    77.104551    89.033358    81.351231    1805.9409  0.048891556  0.049353886  0.057400502   0.15564594  0.033229693  0.034077052   0.04046133   0.10776808 
  905000   -1792209.5     13583.01   -1071.8388    77.104551    89.033358    81.351231    1803.2525  0.050063188  0.049923815  0.057761353   0.15774836  0.033904056  0.033498683   0.04119196    0.1085947 
  906000     -1792268    13530.427   -324.60106    77.104551    89.033358    81.351231    1796.2717  0.049617344  0.050495644  0.057170141   0.15728313  0.033256465  0.034235696  0.040611885   0.10810405 
  907000   -1792130.7    13582.676    364.14846    77.104551    89.033358    81.351231    1803.2082  0.050831289  0.049988888  0.058816893   0.15963707  0.034376415  0.033939367  0.041636496   0.10995228 
  908000   -1792251.8    13540.827   -318.14182    77.104551    89.033358    81.351231    1797.6524  0.048992062  0.050072704  0.056207823   0.15527259  0.033006206  0.034112304  0.039781274   0.10689978 
  909000   -1792220.8    13581.855   -36.394014    77.104551    89.033358    81.351231    1803.0992  0.049380636  0.050690144  0.056462791   0.15653357  0.033398905  0.034266161  0.040325099   0.10799016 
  910000   -1792214.7    13489.859   -199.39809    77.104551    89.033358    81.351231     1790.886  0.049921674   0.05122466  0.058766659   0.15991299  0.033529084  0.034271515  0.041499528   0.10930013 
  911000   -1792212.6    13633.062   -31.941887    77.104551    89.033358    81.351231    1809.8973  0.050159679  0.050653233  0.056027997   0.15684091  0.033410827  0.034438174  0.039475967   0.10732497 
  912000   -1792198.7    13582.226   -36.474149    77.104551    89.033358    81.351231    1803.1484  0.049868519   0.05214013  0.057273702   0.15928235  0.033029542  0.034133183  0.040411144   0.10757387 
  913000   -1792245.7    13515.699   -219.80013    77.104551    89.033358    81.351231    1794.3165  0.048988551   0.05055173   0.05740683   0.15694711  0.032791613  0.033514162  0.040452132   0.10675791 
  914000   -1792198.7    13557.033   -23.407611    77.104551    89.033358    81.351231    1799.8039  0.050250532  0.050648378  0.057416926   0.15831584   0.03319079  0.033860218  0.040696978   0.10774799 
  915000   -1792252.5    13508.396   -373.57716    77.104551    89.033358    81.351231     1793.347  0.049957476  0.051159139  0.057396272   0.15851289  0.033708717   0.03375626  0.039998804   0.10746378 
  916000     -1792185    13483.261    83.807725    77.104551    89.033358    81.351231    1790.0101  0.049855571  0.050284745  0.056699526   0.15683984   0.03363387  0.032919037  0.040237113   0.10679002 
  917000   -1792208.3    13537.632   -350.83252    77.104551    89.033358    81.351231    1797.2282  0.051094144  0.050702601  0.057988217   0.15978496  0.034177533  0.033704174  0.041275083   0.10915679 
  918000   -1792223.9    13552.435    349.50991    77.104551    89.033358    81.351231    1799.1935  0.050855412  0.051416105   0.05862564   0.16089716  0.033490971  0.034223041  0.041144453   0.10885846 
  919000   -1792234.1    13456.879   -815.63204    77.104551    89.033358    81.351231    1786.5076  0.049402048  0.050547895  0.057360184   0.15731013  0.032669154  0.033044265   0.04097534   0.10668876 
  920000     -1792185    13472.445   -71.442771    77.104551    89.033358    81.351231    1788.5741  0.051207608  0.051185324  0.057153563   0.15954649  0.033130986   0.03404676  0.041055576   0.10823332 
  921000   -1792224.3    13621.035   -235.14582    77.104551    89.033358    81.351231    1808.3007  0.051105809  0.051107908  0.056619394   0.15883311  0.033596095  0.034063516  0.040072142   0.10773175 
  922000   -1792218.2    13535.207   -181.28542    77.104551    89.033358    81.351231    1796.9063  0.051046965  0.050906222  0.058105587   0.16005877  0.034278669  0.034173807    0.0414759   0.10992838 
  923000   -1792275.1     13551.58   -553.94922    77.104551    89.033358    81.351231    1799.0799  0.048773263  0.051631126  0.056876267   0.15728066  0.032922601  0.034964708  0.040360083   0.10824739 
  924000   -1792222.9    13571.039   -296.71456    77.104551    89.033358    81.351231    1801.6633  0.051934214   0.05062242  0.057940838   0.16049747  0.034009188  0.034274896  0.040862471   0.10914656 
  925000   -1792231.9     13536.19   -229.45492    77.104551    89.033358    81.351231    1797.0368  0.050133095  0.050665116  0.057498921   0.15829713  0.032915574  0.033536484  0.039812636   0.10626469 
  926000   -1792179.6    13566.713    272.86994    77.104551    89.033358    81.351231     1801.089  0.050123613  0.051275285  0.057564663   0.15896356   0.03275116  0.034367559   0.04089012   0.10800884 
  927000   -1792191.3    13535.177    49.704071    77.104551    89.033358    81.351231    1796.9024   0.05121677  0.050270311  0.057620292   0.15910737  0.033952731  0.033894215  0.041837184   0.10968413 
  928000   -1792182.5    13616.715   -383.75451    77.104551    89.033358    81.351231    1807.7272  0.050396384  0.050890523   0.05609299    0.1573799  0.033451061  0.033685681  0.040019427   0.10715617 
  929000   -1792142.6    13593.762    624.49322    77.104551    89.033358    81.351231    1804.6799  0.051330854  0.050624356   0.05839242   0.16034763  0.033934631  0.034066361  0.041640057   0.10964105 
  930000   -1792244.6    13636.017   -321.47546    77.104551    89.033358    81.351231    1810.2897  0.051081387  0.049477729  0.056845843   0.15740496  0.033590912  0.033006895  0.040629448   0.10722726 
  931000     -1792203    13552.107   -139.07317    77.104551    89.033358    81.351231    1799.1499   0.05031812  0.051151133   0.05786495    0.1593342   0.03382805   0.03435488  0.040782627   0.10896556 
  932000   -1792248.8    13607.674   -359.84647    77.104551    89.033358    81.351231    1806.5268    0.0500116  0.050039783  0.057375359   0.15742674  0.033995602  0.033693762  0.041312205   0.10900157 
  933000   -1792235.2    13562.477   -406.54738    77.104551    89.033358    81.351231    1800.5266  0.049332508  0.050885772  0.056029594   0.15624787  0.032673013  0.034769251  0.039741704   0.10718397 
  934000     -1792337    13570.936   -721.04913    77.104551    89.033358    81.351231    1801.6496  0.049868156  0.049577383  0.056786932   0.15623247  0.033104737  0.033899318   0.04101876   0.10802281 
  935000   -1792207.4    13515.811    147.55348    77.104551    89.033358    81.351231    1794.3314  0.050156301  0.050962853  0.056702599   0.15782175  0.033708541   0.03445782  0.040685337    0.1088517 
  936000   -1792256.5    13662.225   -807.24297    77.104551    89.033358    81.351231     1813.769    0.0497589  0.051852635  0.057092339   0.15870387   0.03342962  0.034315971  0.040755057   0.10850065 
  937000     -1792125    13447.181    215.20714    77.104551    89.033358    81.351231    1785.2202  0.049878016  0.050786792   0.05772011   0.15838492  0.032902654  0.033728461  0.041517079   0.10814819 
  938000   -1792118.5    13569.726    414.06989    77.104551    89.033358    81.351231     1801.489  0.049657325  0.051205892  0.057705685    0.1585689  0.033197608   0.03465314   0.04174792   0.10959867 
  939000   -1792145.9    13566.627    317.08698    77.104551    89.033358    81.351231    1801.0775  0.050237754  0.051412769  0.057212377    0.1588629  0.033403892   0.03475208    0.0410403   0.10919627 
  940000   -1792247.3    13644.619   -204.34669    77.104551    89.033358    81.351231    1811.4316  0.050626413  0.050997749  0.056771548   0.15839571  0.033661574   0.03404879  0.040061098   0.10777146 
  941000   -1792094.2    13491.003    180.35021    77.104551    89.033358    81.351231    1791.0379  0.049762386  0.049704688  0.057029826    0.1564969  0.033339896  0.033378732  0.040611681   0.10733031 
  942000   -1792283.9    13591.321   -567.20127    77.104551    89.033358    81.351231    1804.3559  0.048904639  0.050009708  0.057303611   0.15621796  0.033097824  0.033984826  0.040917326   0.10799998 
  943000   -1792282.6    13532.738    -784.6393    77.104551    89.033358    81.351231    1796.5785  0.049540979   0.05075798   0.05751837   0.15781733  0.033319467  0.034422794  0.041518068   0.10926033 
  944000   -1792261.5    13463.155   -653.77157    77.104551    89.033358    81.351231    1787.3408  0.049709486  0.050817303  0.057134095   0.15766088   0.03408579  0.034488991   0.04043523   0.10901001 
  945000   -1792203.6    13580.094   -259.85914    77.104551    89.033358    81.351231    1802.8654  0.049748542  0.050980843  0.059635871   0.16036526   0.03348304  0.034187525  0.042685135    0.1103557 
  946000   -1792215.6    13563.764   -206.53269    77.104551    89.033358    81.351231    1800.6975  0.049319522   0.05115009  0.058028723   0.15849833  0.032638903  0.034425365  0.041775816   0.10884008 
  947000     -1792176    13504.264   -68.942282    77.104551    89.033358    81.351231    1792.7984   0.05119549  0.051090083  0.057414389   0.15969996   0.03428026  0.034093539   0.04172552   0.11009932 
  948000   -1792311.6    13559.318   -747.44947    77.104551    89.033358    81.351231    1800.1072  0.050648114  0.051258265  0.058068857   0.15997524  0.034030394  0.034637532  0.041586462   0.11025439 
  949000   -1792195.9    13493.327   -395.30628    77.104551    89.033358    81.351231    1791.3464   0.05045008   0.05133388  0.056308496   0.15809245  0.032991841  0.034774045  0.040584022   0.10834991 
  950000   -1792227.6    13560.833   -708.84989    77.104551    89.033358    81.351231    1800.3084    0.0514057  0.050996997   0.05760431   0.16000701  0.034420519  0.034527951  0.041670153   0.11061862 
  951000   -1792173.8     13629.06    278.36208    77.104551    89.033358    81.351231    1809.3661  0.049849644  0.051388708  0.058267324   0.15950568  0.032967985  0.034420415  0.040686958   0.10807536 
  952000   -1792216.5    13508.523   -480.46755    77.104551    89.033358    81.351231    1793.3638  0.049916061  0.050206974  0.058186602   0.15830964  0.033276263    0.0348774  0.041972695   0.11012636 
  953000   -1792270.7    13554.845   -564.67812    77.104551    89.033358    81.351231    1799.5135   0.05015893  0.050161997  0.056938196   0.15725912    0.0340301   0.03432585  0.040628278   0.10898423 
  954000   -1792206.5    13543.339    88.592523    77.104551    89.033358    81.351231    1797.9859  0.050315213  0.050692183  0.058633029   0.15964042  0.033372105  0.034134201  0.041954787   0.10946109 
  955000   -1792219.2    13585.916    186.29247    77.104551    89.033358    81.351231    1803.6383  0.050592014   0.05130128  0.057857256   0.15975055  0.033178645  0.035481284  0.041099532   0.10975946 
  956000   -1792227.5    13490.482   -803.38309    77.104551    89.033358    81.351231    1790.9687   0.05030276  0.050690298  0.057059367   0.15805242  0.033461495  0.034335208  0.039975499    0.1077722 
  957000   -1792219.7     13547.03   -426.07903    77.104551    89.033358    81.351231    1798.4759  0.050545599  0.050409449  0.058097743   0.15905279  0.033042911  0.033612148  0.041652137    0.1083072 
  958000   -1792198.7    13532.352   -284.46373    77.104551    89.033358    81.351231    1796.5273  0.050022773  0.050637123  0.057995949   0.15865585  0.033232584  0.033982013  0.041911058   0.10912565 
  959000   -1792176.6    13571.144    162.46912    77.104551    89.033358    81.351231    1801.6772  0.050458063  0.050639756  0.058000652   0.15909847  0.034242962  0.034327452  0.040500452   0.10907087 
  960000   -1792210.2    13572.298   -85.502251    77.104551    89.033358    81.351231    1801.8304  0.049645345  0.050737365  0.058134715   0.15851743   0.03325937  0.034748917  0.041649785   0.10965807 
  961000   -1792239.4    13500.545   -398.55578    77.104551    89.033358    81.351231    1792.3046  0.049732289  0.051808499  0.057646036   0.15918682  0.033042306  0.034625529  0.040784707   0.10845254 
  962000   -1792219.2    13606.903   -496.78398    77.104551    89.033358    81.351231    1806.4246  0.050578893  0.050529992  0.056648251   0.15775714  0.034113713  0.034597969  0.040597561   0.10930924 
  963000   -1792200.3    13495.484    255.02039    77.104551    89.033358    81.351231    1791.6328  0.049211177  0.051194032  0.058274205   0.15867941  0.033256898  0.035007041  0.042370936   0.11063488 
  964000   -1792147.2    13587.542    294.36852    77.104551    89.033358    81.351231    1803.8542  0.049874635  0.051081072  0.058350607   0.15930631  0.034057465  0.034610528  0.041038941   0.10970693 
  965000   -1792179.8     13471.53   -101.31438    77.104551    89.033358    81.351231    1788.4527  0.050388665  0.051255421  0.057162364   0.15880645  0.034424329   0.03473151   0.04137546    0.1105313 
  966000     -1792184    13533.702   -388.34782    77.104551    89.033358    81.351231    1796.7065  0.050266679  0.052403469  0.057267018   0.15993717  0.033690396  0.035241194  0.040416481   0.10934807 
  967000   -1792215.7    13525.273   -398.20282    77.104551    89.033358    81.351231    1795.5875  0.049467548  0.051222628  0.058080714   0.15877089  0.033718481  0.034675994  0.041899122    0.1102936 
  968000   -1792190.9    13604.796    57.035728    77.104551    89.033358    81.351231    1806.1448  0.049246678  0.051307744  0.058330265   0.15888469  0.032348198  0.034699241  0.041522414   0.10856985 
  969000   -1792271.4    13524.213    -740.5514    77.104551    89.033358    81.351231    1795.4467  0.049764036  0.051701684  0.057331058   0.15879678  0.033366061  0.035562498  0.040213706   0.10914227 
  970000   -1792173.2    13526.186   -171.52276    77.104551    89.033358    81.351231    1795.7087  0.050169041  0.051359135  0.057291692   0.15881987  0.033437549  0.034204838  0.040374317    0.1080167 
  971000     -1792171    13518.948    51.752233    77.104551    89.033358    81.351231    1794.7478  0.050418886  0.051324873  0.056838881   0.15858264  0.034211031  0.034034781  0.040944371   0.10919018 
  972000   -1792287.7    13555.281   -651.40365    77.104551    89.033358    81.351231    1799.5713  0.051076701  0.052164373  0.056772596   0.16001367  0.034081165  0.035124152  0.040151907   0.10935722 
  973000   -1792160.8    13555.968   -183.95367    77.104551    89.033358    81.351231    1799.6625  0.049674593  0.051934913  0.057781663   0.15939117  0.033395957  0.034988981   0.04172785   0.11011279 
  974000   -1792303.1    13576.579   -1477.6858    77.104551    89.033358    81.351231    1802.3988  0.050980332  0.051817466  0.057631262   0.16042906  0.033878667  0.034459967  0.040434525   0.10877316 
  975000   -1792241.5     13587.53   -141.54792    77.104551    89.033358    81.351231    1803.8526  0.051261518  0.051083983  0.057534483   0.15987998  0.034466398  0.034625302  0.040673172   0.10976487 
  976000     -1792231    13464.013   -687.43445    77.104551    89.033358    81.351231    1787.4547  0.049387085  0.052469913  0.057461214   0.15931821   0.03307582  0.035032294  0.040300167   0.10840828 
  977000   -1792128.7    13569.172        599.2    77.104551    89.033358    81.351231    1801.4155  0.050188907  0.050646791  0.056938784   0.15777448  0.034122226  0.034673941  0.039990719   0.10878689 
  978000   -1792257.7     13517.11   -271.68217    77.104551    89.033358    81.351231    1794.5038  0.049920114  0.051258172  0.057603873   0.15878216  0.033248145  0.034680658  0.041433991   0.10936279 
  979000   -1792205.1    13540.325   -127.51442    77.104551    89.033358    81.351231    1797.5858  0.050888383  0.051835951  0.058110662     0.160835  0.033752357  0.034128534  0.040643705    0.1085246 
  980000   -1792127.7     13557.86    552.12977    77.104551    89.033358    81.351231    1799.9137  0.051835557  0.052156607    0.0575514   0.16154356  0.035382055  0.035714387  0.041132132   0.11222857 
  981000   -1792269.6    13613.733   -923.81919    77.104551    89.033358    81.351231    1807.3312  0.049410091  0.051299304  0.056237582   0.15694698  0.032883774  0.034413034  0.040332662   0.10762947 
  982000     -1792170    13593.462   -24.050598    77.104551    89.033358    81.351231    1804.6401  0.050351331  0.052127083   0.05782407   0.16030248   0.03295076   0.03472585   0.04177859    0.1094552 
  983000   -1792267.8    13655.333   -296.66432    77.104551    89.033358    81.351231     1812.854  0.050867419  0.050891262  0.057623883   0.15938256  0.033849708  0.033742143    0.0403428   0.10793465 
  984000     -1792209    13544.269   -474.70918    77.104551    89.033358    81.351231    1798.1093  0.050924996  0.051356615  0.056224648   0.15850626  0.034279636  0.034409834  0.040393609   0.10908308 
  985000   -1792205.1    13604.504   -236.25313    77.104551    89.033358    81.351231    1806.1061  0.050622038  0.052305364  0.059834683   0.16276208  0.034209475  0.034971492  0.042727535    0.1119085 
  986000   -1792259.4    13562.583   -576.30416    77.104551    89.033358    81.351231    1800.5407  0.050737751  0.051114673  0.057585809   0.15943823   0.03300256  0.034245882  0.040781852   0.10803029 
  987000   -1792123.7    13605.498    538.87206    77.104551    89.033358    81.351231    1806.2381  0.052439073  0.051898695  0.057806948   0.16214472  0.034799983  0.034420447  0.040932768    0.1101532 
  988000   -1792226.9    13522.099   -411.35252    77.104551    89.033358    81.351231    1795.1661  0.050997587  0.051313764  0.058253957   0.16056531  0.034090506   0.03385144  0.041618832   0.10956078 
  989000   -1792320.3    13605.724   -672.56122    77.104551    89.033358    81.351231     1806.268  0.050595732  0.052931327  0.057347952   0.16087501  0.033918063  0.034692467   0.03974905   0.10835958 
  990000   -1792212.5     13620.84   -121.13865    77.104551    89.033358    81.351231    1808.2748  0.051531432  0.052343415  0.058672429   0.16254728  0.035597312  0.034499647  0.042183709   0.11228067 
  991000   -1792195.6    13580.224    79.842845    77.104551    89.033358    81.351231    1802.8827  0.050249808   0.05176633  0.057804443   0.15982058  0.034007757  0.034293222     0.040454   0.10875498 
  992000   -1792198.7    13550.931  -0.35448413    77.104551    89.033358    81.351231    1798.9938  0.050921998  0.052083399   0.05767094   0.16067634  0.034105728  0.034331797  0.040906801   0.10934433 
  993000   -1792133.7    13572.393   -312.51951    77.104551    89.033358    81.351231     1801.843  0.051155794  0.052291835  0.057665655   0.16111328  0.034188938  0.034580958  0.039901533   0.10867143 
  994000   -1792208.5     13596.43    -151.5623    77.104551    89.033358    81.351231    1805.0342  0.050542384  0.051668466  0.057967089   0.16017794  0.033659262  0.034112206  0.041130745   0.10890221 
  995000     -1792256    13560.725   -679.40498    77.104551    89.033358    81.351231     1800.294   0.05139607  0.051954647  0.058734355   0.16208507  0.034443868  0.033917306  0.041660035   0.11002121 
  996000   -1792262.5    13583.335   -178.16776    77.104551    89.033358    81.351231    1803.2957  0.050269755  0.051927964  0.058374658   0.16057238  0.033193516  0.035148972  0.040574491   0.10891698 
  997000   -1792146.5    13609.208    55.521839    77.104551    89.033358    81.351231    1806.7305  0.051445529  0.052026937  0.060388721   0.16386119  0.034820341  0.034730747  0.043565891   0.11311698 
  998000     -1792194     13533.51   -101.95175    77.104551    89.033358    81.351231     1796.681  0.050300091  0.052252208  0.057534015   0.16008631  0.033608092   0.03468427  0.040550935    0.1088433 
  999000   -1792193.3    13521.592   -276.72065    77.104551    89.033358    81.351231    1795.0989  0.051006403    0.0515843  0.058720099    0.1613108  0.033843076  0.034623625  0.040346146   0.10881285 
 1000000   -1792289.6    13615.267   -819.47349    77.104551    89.033358    81.351231     1807.535  0.050234833  0.051057257  0.058889685   0.16018177    0.0323786  0.033932331  0.041107596   0.10741853 
Loop time of 228425 on 7 procs for 1000000 steps with 58275 atoms

Pair  time (%) = 179374 (78.5264)
Kspce time (%) = 43311.2 (18.9608)
Neigh time (%) = 4036.31 (1.76701)
Comm  time (%) = 1220.34 (0.534241)
Outpt time (%) = 0.423592 (0.00018544)
Other time (%) = 482.936 (0.21142)

Nlocal:    8325 ave 8444 max 8180 min
Histogram: 1 2 0 0 0 0 0 0 2 2
Nghost:    32378.3 ave 32810 max 32103 min
Histogram: 4 0 0 0 0 0 0 1 1 1
Neighs:    3.18278e+06 ave 3.2279e+06 max 3.12578e+06 min
Histogram: 1 2 0 0 0 0 0 1 0 3

Total # of neighbors = 22279448
Ave neighs/atom = 382.316
Neighbor list builds = 31682
Dangerous builds = 0
