LAMMPS (28 Jun 2014)
Processor partition = 8
# ------------------ INITIALIZATION -------------------
units		metal           #check!!!!!
boundary	p p p
dimension	3
atom_style    charge
shell		mkdir  xyz
atom_modify map array
atom_modify    sort 0 0.0

variable      mytemp equal  100
# ------------------- Configuration ---------------------
read_data	CrO.dat
  orthogonal box = (0 0 0) to (17.1781 19.8356 13.5931)
  1 by 1 by 1 MPI processor grid
  reading atoms ...
  479 atoms

mass		1  15.9994
mass            2  51.9961

# -------------------- FORCE FIELDS ----------------------
pair_style buck/coul/long 10.0 10.0
pair_coeff    * * 1e-30 1e-30 0.0
pair_coeff    1 2 1204.18 0.3165   0.0
pair_coeff    1 1 9547.96 0.21916  32.0

kspace_style    pppm 0.0001


## Define group
#group deleteG id 420
#delete_atoms group deleteG

group oxygen type 1
287 atoms in group oxygen
group chromium type 2
192 atoms in group chromium


##-------------------- energy minimization ---------------

#compute   aE   all pe/atom
#min_style  fire

thermo          100
thermo_style    custom step pe pxx pyy pzz pxy pxz pyz lx ly lz temp


#minimize      1e-10 1e-10 10000 10000

#--------------------------- run NEB -----------------------------------
reset_timestep	0
fix		1 all neb 10.0

dump            1  all  xyz  10000 MEP.xyz

timestep        0.01
#min_style	quickmin
min_style  fire

neb		0.0 0.001 1000 1000 100 final finial.data
WARNING: Resetting reneighboring criteria during minimization (../min.cpp:168)
PPPM initialization ...
WARNING: System is not charge neutral, net charge = 2 (../kspace.cpp:278)
  G vector (1/distance) = 0.315056
  grid = 18 18 15
  stencil order = 5
  estimated absolute RMS force accuracy = 0.00121379
  estimated relative force accuracy = 8.42928e-05
  using double precision FFTs
  3d grid and FFT values/proc = 13750 4860
Memory usage per processor = 4.77636 Mbytes
Step PotEng Pxx Pyy Pzz Pxy Pxz Pyz Lx Ly Lz Temp 
       0   -14781.138   -136984.29   -134539.91    -28777.37   -152.10532   -2883.1637     496.0242      17.1781      19.8356     13.59308            0 
     100     -14850.4   -87302.301   -84242.023   -186036.89    435.80942   -3930.0425    748.29358      17.1781      19.8356     13.59308   0.13215432 
     200   -14850.399   -87392.708    -84269.77   -185913.88    375.90422    -4093.768    645.74347      17.1781      19.8356     13.59308 0.00030971366 
     300   -14850.397   -87396.235   -84266.628   -185873.05    361.40693   -4142.9502    620.14723      17.1781      19.8356     13.59308 1.5802258e-05 
     400   -14850.397     -87391.4    -84263.83   -185859.74    359.33454   -4153.6692    617.52675      17.1781      19.8356     13.59308 1.2085017e-05 
     500   -14850.397   -87386.578   -84262.552   -185856.06     360.4201   -4154.1053    619.72266      17.1781      19.8356     13.59308 2.4113263e-06 
     600   -14850.397   -87384.083   -84261.864   -185855.74    361.30121   -4152.9762    621.67353      17.1781      19.8356     13.59308 3.0749793e-06 
     700   -14850.398   -87382.778   -84261.799   -185855.75    361.91432   -4151.9906    623.00447      17.1781      19.8356     13.59308 1.1469177e-07 
     727   -14850.398   -87382.336    -84261.68    -185855.8    362.10867   -4151.6216    623.42445      17.1781      19.8356     13.59308 1.5910845e-08 
Loop time of 23.7185 on 1 procs for 727 steps with 479 atoms

Minimization stats:
  Stopping criterion = force tolerance
  Energy initial, next-to-last, final = 
        -14781.1378426      -14850.397668     -14850.3976521
  Force two-norm initial, final = 76.363 0.000168893
  Force max component initial, final = 16.8633 7.91037e-05
  Final line search alpha, max atom move = 0 0
  Iterations, force evaluations = 727 727

Pair  time (%) = 13.811 (58.2288)
Kspce time (%) = 2.15438 (9.08312)
Neigh time (%) = 0 (0)
Comm  time (%) = 0.0518403 (0.218565)
Outpt time (%) = 0.000221252 (0.000932825)
Other time (%) = 7.70108 (32.4686)

Nlocal:    479 ave 479 max 479 min
Histogram: 1 0 0 0 0 0 0 0 0 0
Nghost:    6483 ave 6483 max 6483 min
Histogram: 1 0 0 0 0 0 0 0 0 0
Neighs:    178988 ave 178988 max 178988 min
Histogram: 1 0 0 0 0 0 0 0 0 0

Total # of neighbors = 178988
Ave neighs/atom = 373.67
Neighbor list builds = 0
Dangerous builds = 0
WARNING: Resetting reneighboring criteria during minimization (../min.cpp:168)
Memory usage per processor = 4.77636 Mbytes
Step PotEng Pxx Pyy Pzz Pxy Pxz Pyz Lx Ly Lz Temp 
     727   -14850.398   -87382.336    -84261.68    -185855.8    362.10867   -4151.6216    623.42445      17.1781      19.8356     13.59308            0 
     728   -14850.398   -87382.336    -84261.68    -185855.8    362.10867   -4151.6216    623.42445      17.1781      19.8356     13.59308 2.1415367e-09 
Loop time of 0.211118 on 1 procs for 1 steps with 479 atoms

Minimization stats:
  Stopping criterion = force tolerance
  Energy initial, next-to-last, final = 
        -14850.3976521     -14850.3976521     -14850.3976521
  Force two-norm initial, final = 0.000168893 0.000168893
  Force max component initial, final = 7.91037e-05 7.91037e-05
  Final line search alpha, max atom move = 0 0
  Iterations, force evaluations = 1 1

Pair  time (%) = 0.0300858 (14.2507)
Kspce time (%) = 0.00426316 (2.01932)
Neigh time (%) = 0 (0)
Comm  time (%) = 0.000137806 (0.0652743)
Outpt time (%) = 0 (0)
Other time (%) = 0.176631 (83.6647)

Nlocal:    479 ave 479 max 479 min
Histogram: 1 0 0 0 0 0 0 0 0 0
Nghost:    6483 ave 6483 max 6483 min
Histogram: 1 0 0 0 0 0 0 0 0 0
Neighs:    180498 ave 180498 max 180498 min
Histogram: 1 0 0 0 0 0 0 0 0 0

Total # of neighbors = 180498
Ave neighs/atom = 376.823
Neighbor list builds = 0
Dangerous builds = 0




