LAMMPS (28 Jun 2014)
Processor partition = 3
# ------------------ INITIALIZATION -------------------
units		metal           #check!!!!!
boundary	p p p
dimension	3
atom_style    charge
shell		mkdir  xyz
atom_modify map array
atom_modify    sort 0 0.0

variable      mytemp equal  100
# ------------------- Configuration ---------------------
read_data	CrO.dat
  orthogonal box = (0 0 0) to (17.1781 19.8356 13.5931)
  1 by 1 by 1 MPI processor grid
  reading atoms ...
  479 atoms

mass		1  15.9994
mass            2  51.9961

# -------------------- FORCE FIELDS ----------------------
pair_style buck/coul/long 10.0 10.0
pair_coeff    * * 1e-30 1e-30 0.0
pair_coeff    1 2 1204.18 0.3165   0.0
pair_coeff    1 1 9547.96 0.21916  32.0

kspace_style    pppm 0.0001


## Define group
#group deleteG id 420
#delete_atoms group deleteG

group oxygen type 1
287 atoms in group oxygen
group chromium type 2
192 atoms in group chromium


##-------------------- energy minimization ---------------

#compute   aE   all pe/atom
#min_style  fire

thermo          100
thermo_style    custom step pe pxx pyy pzz pxy pxz pyz lx ly lz temp


#minimize      1e-10 1e-10 10000 10000

#--------------------------- run NEB -----------------------------------
reset_timestep	0
fix		1 all neb 10.0

dump            1  all  xyz  10000 MEP.xyz

timestep        0.01
#min_style	quickmin
min_style  fire

neb		0.0 0.001 1000 1000 100 final finial.data
WARNING: Resetting reneighboring criteria during minimization (../min.cpp:168)
PPPM initialization ...
WARNING: System is not charge neutral, net charge = 2 (../kspace.cpp:278)
  G vector (1/distance) = 0.315056
  grid = 18 18 15
  stencil order = 5
  estimated absolute RMS force accuracy = 0.00121379
  estimated relative force accuracy = 8.42928e-05
  using double precision FFTs
  3d grid and FFT values/proc = 13750 4860
Memory usage per processor = 4.77636 Mbytes
Step PotEng Pxx Pyy Pzz Pxy Pxz Pyz Lx Ly Lz Temp 
       0   -14780.964   -136955.33   -137663.59   -33952.009    552.94449   -1729.9618    1555.1059      17.1781      19.8356     13.59308            0 
     100   -14850.688   -86767.088   -85325.343    -187547.1   -73.453994   -1898.4125    1815.9438      17.1781      19.8356     13.59308   0.14887203 
     200   -14850.664   -86710.378   -85044.361      -187209    67.665763    -2182.523    1746.0541      17.1781      19.8356     13.59308 0.00033476801 
     300   -14850.658   -86684.302   -84990.347   -187133.11    90.331695    -2245.278    1736.0227      17.1781      19.8356     13.59308 1.5188721e-05 
     400   -14850.659   -86678.208   -84992.791   -187131.28    85.610524   -2245.2502     1742.241      17.1781      19.8356     13.59308 1.565269e-05 
     500   -14850.661   -86678.415   -85002.766   -187140.66    78.922998   -2234.6174    1748.1376      17.1781      19.8356     13.59308 5.2300502e-06 
     600   -14850.662   -86678.655   -85009.302   -187147.49    74.041998   -2227.1608    1752.3751      17.1781      19.8356     13.59308 1.1745134e-06 
     700   -14850.663   -86679.204   -85013.551    -187151.8    71.301338   -2222.3957    1754.5434      17.1781      19.8356     13.59308 7.7441164e-07 
     727   -14850.663    -86679.44   -85015.082   -187153.42    70.490974   -2220.8673    1755.4229      17.1781      19.8356     13.59308 4.8767811e-08 
Loop time of 23.7185 on 1 procs for 727 steps with 479 atoms

Minimization stats:
  Stopping criterion = force tolerance
  Energy initial, next-to-last, final = 
        -14780.9635943     -14850.6630657      -14850.663054
  Force two-norm initial, final = 76.2902 0.000418547
  Force max component initial, final = 13.2156 0.000191886
  Final line search alpha, max atom move = 0 0
  Iterations, force evaluations = 727 727

Pair  time (%) = 14.1855 (59.8076)
Kspce time (%) = 2.69718 (11.3716)
Neigh time (%) = 0 (0)
Comm  time (%) = 0.0662317 (0.27924)
Outpt time (%) = 0.000271797 (0.00114593)
Other time (%) = 6.76937 (28.5404)

Nlocal:    479 ave 479 max 479 min
Histogram: 1 0 0 0 0 0 0 0 0 0
Nghost:    6483 ave 6483 max 6483 min
Histogram: 1 0 0 0 0 0 0 0 0 0
Neighs:    178998 ave 178998 max 178998 min
Histogram: 1 0 0 0 0 0 0 0 0 0

Total # of neighbors = 178998
Ave neighs/atom = 373.691
Neighbor list builds = 0
Dangerous builds = 0
WARNING: Resetting reneighboring criteria during minimization (../min.cpp:168)
Memory usage per processor = 4.77636 Mbytes
Step PotEng Pxx Pyy Pzz Pxy Pxz Pyz Lx Ly Lz Temp 
     727   -14850.663    -86679.44   -85015.082   -187153.42    70.490974   -2220.8673    1755.4229      17.1781      19.8356     13.59308            0 
     728   -14850.663    -86679.44   -85015.082   -187153.42    70.490974   -2220.8673    1755.4229      17.1781      19.8356     13.59308 1.2195865e-08 
Loop time of 0.211347 on 1 procs for 1 steps with 479 atoms

Minimization stats:
  Stopping criterion = force tolerance
  Energy initial, next-to-last, final = 
         -14850.663054      -14850.663054      -14850.663054
  Force two-norm initial, final = 0.000418547 0.000418547
  Force max component initial, final = 0.000191886 0.000191886
  Final line search alpha, max atom move = 0 0
  Iterations, force evaluations = 1 1

Pair  time (%) = 0.0484149 (22.9078)
Kspce time (%) = 0.00427794 (2.02413)
Neigh time (%) = 0 (0)
Comm  time (%) = 0.000160217 (0.0758077)
Outpt time (%) = 0 (0)
Other time (%) = 0.158494 (74.9922)

Nlocal:    479 ave 479 max 479 min
Histogram: 1 0 0 0 0 0 0 0 0 0
Nghost:    6483 ave 6483 max 6483 min
Histogram: 1 0 0 0 0 0 0 0 0 0
Neighs:    180445 ave 180445 max 180445 min
Histogram: 1 0 0 0 0 0 0 0 0 0

Total # of neighbors = 180445
Ave neighs/atom = 376.712
Neighbor list builds = 0
Dangerous builds = 0




