LAMMPS (28 Jun 2014)
# ------------------ INITIALIZATION -------------------
units		metal           #check!!!!!
boundary	p p p
dimension	3
atom_style    charge
shell		mkdir  xyz
shell         mkdir  dump

variable      mytemp equal  1600

# -------------------- FORCE FIELDS ----------------------
pair_style buck/coul/long 10.0 10.0

read_data	NPT_relaxed_1600.data
  orthogonal box = (0.146235 0.168859 0.154289) to (77.1548 89.0913 81.4042)
  1 by 5 by 3 MPI processor grid
  reading atoms ...
  58275 atoms
  reading velocities ...
  58275 velocities

pair_coeff    * * 1e-30 1e-30 0.0
pair_coeff    1 2 1204.18 0.3165   0.0
pair_coeff    1 1 9547.96 0.21916  32.0

kspace_style    pppm 0.0001

## Define group
group oxygen type 1
34965 atoms in group oxygen
group chromium type 2
23310 atoms in group chromium


## --------------------- NVT  --------------------
compute allmsd all displace/atom

#dump          2 all custom 25000  dump/dump id type xu yu zu c_allmsd[1] c_allmsd[2] c_allmsd[3] c_allmsd[4]
#dump          1 all xyz 25000 xyz/all.xyz
#dump_modify   1 element O Cr



compute   Omsd oxygen msd com yes
compute   Crmsd chromium msd com yes
variable  OMSDX equal "c_Omsd[1]"
variable  OMSDY equal "c_Omsd[2]"
variable  OMSDZ equal "c_Omsd[3]"
variable  OMSDAll equal "c_Omsd[4]"

variable  CrMSDX equal "c_Crmsd[1]"
variable  CrMSDY equal "c_Crmsd[2]"
variable  CrMSDZ equal "c_Crmsd[3]"
variable  CrMSDAll equal "c_Crmsd[4]"

thermo          1000
thermo_style    custom step pe ke press lx ly lz temp c_Omsd[1]  c_Omsd[2]  c_Omsd[3]  c_Omsd[4]  c_Crmsd[1]  c_Crmsd[2]  c_Crmsd[3]  c_Crmsd[4]


fix          1 all print 100 "${OMSDX}   ${OMSDY}   ${OMSDZ}  ${OMSDAll}  ${CrMSDX}   ${CrMSDY}   ${CrMSDZ}  ${CrMSDAll}" file MSD.data screen no
fix          3 all nvt temp ${mytemp} ${mytemp} 0.01
fix          3 all nvt temp 1600 ${mytemp} 0.01
fix          3 all nvt temp 1600 1600 0.01

run      1000000
PPPM initialization ...
  G vector (1/distance) = 0.308964
  grid = 72 80 75
  stencil order = 5
  estimated absolute RMS force accuracy = 0.00178109
  estimated relative force accuracy = 0.00012369
  using double precision FFTs
  3d grid and FFT values/proc = 58144 28800
Memory usage per processor = 12.6276 Mbytes
Step PotEng KinEng Press Lx Ly Lz Temp Omsd[1] Omsd[2] Omsd[3] Omsd[4] Crmsd[1] Crmsd[2] Crmsd[3] Crmsd[4] 
       0   -1793870.4    12065.043   -822.12661     77.00853    88.922483    81.249922    1601.7303 5.0835086e-29 8.343908e-29 5.1100769e-29 1.8537494e-28 5.0814149e-29 1.2061348e-29 5.0896453e-29 1.1377195e-28 
    1000   -1793887.8    11960.856   -648.87554     77.00853    88.922483    81.249922    1587.8987  0.029489139  0.029314286   0.04074259  0.099546015  0.024284642  0.023630454   0.03266894  0.080584035 
    2000   -1793860.6    12012.129   -1062.3659     77.00853    88.922483    81.249922    1594.7056  0.030381724  0.030085645  0.038106363  0.098573733  0.024554407     0.024527  0.030245725  0.079327132 
    3000   -1793815.2    12065.248   -653.48411     77.00853    88.922483    81.249922    1601.7576  0.030097961  0.030183902  0.038929517  0.099211379  0.024121661  0.023927867  0.031093198  0.079142725 
    4000   -1793877.7    12092.488   -743.06773     77.00853    88.922483    81.249922    1605.3739   0.03029599  0.030951767  0.039088334   0.10033609  0.024239737  0.024510414  0.031435243  0.080185393 
    5000   -1793857.5      12022.2   -570.42298     77.00853    88.922483    81.249922    1596.0426  0.029960354  0.030773732   0.03765882  0.098392907   0.02372086  0.024537697  0.029890937  0.078149494 
    6000   -1793836.6    12025.387   -1230.0472     77.00853    88.922483    81.249922    1596.4657  0.031338049  0.030946903  0.039161516   0.10144647  0.025105827  0.024430227  0.031661485  0.081197539 
    7000   -1793814.3    12001.481   -921.62788     77.00853    88.922483    81.249922     1593.292  0.030417245  0.030639096  0.038079316  0.099135658  0.024079887  0.023804737  0.029660331  0.077544954 
    8000   -1793902.7    12026.905   -654.80483     77.00853    88.922483    81.249922    1596.6672  0.030581491  0.031609214  0.040227078   0.10241778  0.024373428  0.024530112  0.032145772  0.081049312 
    9000   -1793795.6    12039.931   -320.38795     77.00853    88.922483    81.249922    1598.3965  0.029527657    0.0314865  0.039305772   0.10031993  0.023351853  0.024502891  0.030923149  0.078777893 
   10000   -1793805.3    12021.929   -375.97032     77.00853    88.922483    81.249922    1596.0066  0.030989807  0.031284171  0.039271142   0.10154512  0.023941142  0.023947668  0.031530888  0.079419698 
   11000   -1793852.5     11957.21   -1128.9669     77.00853    88.922483    81.249922    1587.4146  0.031781433  0.031579633  0.040314593   0.10367566   0.02490851  0.024217423  0.032150087   0.08127602 
   12000   -1793878.9    12065.941   -537.16011     77.00853    88.922483    81.249922    1601.8496  0.031249503  0.032347592  0.037709976   0.10130707  0.024480256  0.025271127  0.029813945  0.079565328 
   13000   -1793774.4    11977.892   -134.07796     77.00853    88.922483    81.249922    1590.1603  0.031377488  0.031458467  0.039795385   0.10263134  0.024670245  0.024675135  0.032124478  0.081469858 
   14000   -1793918.1    12034.973    -1362.744     77.00853    88.922483    81.249922    1597.7384  0.029746512  0.031325836  0.038371735  0.099444083  0.023299011  0.024396101  0.030528858   0.07822397 
   15000   -1793817.4    12083.758   -621.92817     77.00853    88.922483    81.249922    1604.2149  0.030927038  0.031918723  0.039607212   0.10245297  0.024227157  0.025219821   0.03083343  0.080280408 
   16000   -1793870.9    12105.897   -423.24066     77.00853    88.922483    81.249922     1607.154  0.032488728  0.031717656  0.041074831   0.10528121  0.026176178  0.025121601  0.032543621    0.0838414 
   17000   -1793822.5    12051.448   -738.94997     77.00853    88.922483    81.249922    1599.9255  0.031978295  0.031106686  0.038587978   0.10167296  0.025163732   0.02435014  0.031009551  0.080523423 
   18000   -1793863.2    12084.943    -692.7777     77.00853    88.922483    81.249922    1604.3723  0.031547482  0.032905139   0.04060398    0.1050566  0.024493688  0.025217117  0.032628387  0.082339193 
   19000   -1793839.9    12025.742   -665.29417     77.00853    88.922483    81.249922    1596.5128  0.030976546  0.032519476  0.038625526   0.10212155  0.023606211   0.02507973  0.030790139  0.079476081 
   20000   -1793865.3    12003.101   -136.32141     77.00853    88.922483    81.249922     1593.507   0.03118188  0.030919889  0.039053395   0.10115516  0.024389445   0.02408658  0.031553499  0.080029524 
   21000   -1793862.4     12008.75   -712.60405     77.00853    88.922483    81.249922     1594.257  0.032322984  0.031555602  0.039343813    0.1032224   0.02455726    0.0250332  0.030672629  0.080263088 
   22000   -1793867.1    12015.953   -882.84157     77.00853    88.922483    81.249922    1595.2133  0.031295128  0.031872754  0.038846287   0.10201417  0.024276289  0.024784754  0.030827187   0.07988823 
   23000   -1793874.3    12053.354   -834.06176     77.00853    88.922483    81.249922    1600.1785  0.031874368  0.031818869   0.04129407   0.10498731  0.025124406  0.025055717  0.033975152  0.084155275 
   24000   -1793811.4    12052.303   -438.90104     77.00853    88.922483    81.249922     1600.039   0.03131659  0.031553709  0.038633118   0.10150342  0.023735758  0.024429276  0.030716628  0.078881663 
   25000   -1793805.5    11996.322   -375.89572     77.00853    88.922483    81.249922     1592.607  0.032797322  0.031639156  0.041192837   0.10562931  0.025168203  0.024835678  0.032655896  0.082659777 
   26000   -1793830.1     12029.89   -471.97447     77.00853    88.922483    81.249922    1597.0635  0.031321141  0.031021764  0.039434802   0.10177771  0.024067124  0.025097306  0.031732548  0.080896978 
   27000   -1793799.4    11973.364    -951.6902     77.00853    88.922483    81.249922    1589.5593  0.031976773  0.030627742   0.03843545   0.10103996  0.024362021  0.023423757  0.030499597  0.078285375 
   28000   -1793749.7     12119.52    215.28626     77.00853    88.922483    81.249922    1608.9626   0.03250959  0.032068288  0.041354057   0.10593194  0.024577349  0.024814916  0.034059321  0.083451585 
   29000   -1793844.5    12102.435   -533.90549     77.00853    88.922483    81.249922    1606.6945  0.031862453  0.031371141  0.038752716   0.10198631    0.0238644  0.024753732  0.030938173  0.079556305 
   30000   -1793839.5    12047.584   -236.94385     77.00853    88.922483    81.249922    1599.4126  0.032882279  0.030929865  0.040260104   0.10407225  0.025072507  0.024483498  0.032075677  0.081631682 
   31000   -1793908.2    12058.964   -940.46949     77.00853    88.922483    81.249922    1600.9234   0.03134305  0.031952429  0.039584522      0.10288    0.0235132  0.024651395   0.03154208  0.079706675 
   32000   -1793843.5     12085.31   -864.31681     77.00853    88.922483    81.249922    1604.4209  0.032425962  0.031725046  0.038711639   0.10286265  0.024839156  0.024631343   0.03073341  0.080203908 
   33000   -1793836.2    12102.636   -606.56945     77.00853    88.922483    81.249922    1606.7211   0.03168329  0.032591895  0.040516663   0.10479185  0.024387091  0.025418872  0.032454063  0.082260027 
   34000   -1793846.4    12106.924   -908.48786     77.00853    88.922483    81.249922    1607.2904  0.032181022  0.031894295  0.038317214   0.10239253  0.025043152  0.024703022  0.030983806   0.08072998 
   35000   -1793860.5    11994.829   -1106.4445     77.00853    88.922483    81.249922    1592.4089  0.032921522  0.031565578  0.040988928   0.10547603  0.025587448  0.025410663  0.033576418  0.084574529 
   36000   -1793824.3    12019.302   -523.75834     77.00853    88.922483    81.249922    1595.6579   0.03119517  0.032508537  0.038276302   0.10198001  0.023445643  0.025549283  0.030376895   0.07937182 
   37000   -1793863.8    12054.503   -393.70409     77.00853    88.922483    81.249922     1600.331  0.032598293  0.032192152  0.039898536   0.10468898   0.02470935  0.025131064  0.031609998  0.081450412 
   38000   -1793848.2    12054.701   -405.55218     77.00853    88.922483    81.249922    1600.3574  0.032789885  0.032369529  0.040356265   0.10551568  0.024659787  0.025369099  0.032498226  0.082527112 
   39000   -1793886.7    12033.834   -434.52964     77.00853    88.922483    81.249922    1597.5871  0.032356343  0.032060654  0.037746578   0.10216357   0.02492381  0.025019975  0.029712935  0.079656719 
   40000     -1793761    12073.473   -456.83237     77.00853    88.922483    81.249922    1602.8495  0.032804677  0.032250044  0.041045419   0.10610014  0.025251137  0.025308965  0.032619461  0.083179562 
   41000   -1793871.3    11967.859   -375.66049     77.00853    88.922483    81.249922    1588.8285  0.031495272  0.032691216  0.038289451   0.10247594  0.023732161  0.025260917   0.03010405  0.079097129 
   42000     -1793881    12075.023   -1085.0882     77.00853    88.922483    81.249922    1603.0553  0.032619845  0.031971662  0.039834228   0.10442573  0.025303552  0.024840156  0.031882358  0.082026066 
   43000   -1793869.9    12023.454   -445.59121     77.00853    88.922483    81.249922    1596.2091  0.032292581  0.032408586  0.039016687   0.10371785  0.024943929  0.024809298  0.030718082  0.080471309 
   44000   -1793827.4    12077.538   -727.85624     77.00853    88.922483    81.249922    1603.3892  0.032350314  0.031893364  0.038521127   0.10276481  0.025167467  0.025095044  0.030756368  0.081018879 
   45000   -1793834.5    12118.006   -192.90072     77.00853    88.922483    81.249922    1608.7616  0.031779959  0.032522815  0.040765253   0.10506803  0.024756976  0.025238657   0.03301849  0.083014123 
   46000   -1793822.8    12007.459   -1130.2485     77.00853    88.922483    81.249922    1594.0856  0.030984891  0.031819487  0.038297085   0.10110146  0.023897705   0.02521095  0.030200643  0.079309297 
   47000   -1793831.9    12036.334   -1021.0805     77.00853    88.922483    81.249922    1597.9191  0.033829421  0.032333973  0.041156322   0.10731972  0.026054026  0.025280035  0.032510159   0.08384422 
   48000   -1793836.4    12068.601   -819.50361     77.00853    88.922483    81.249922    1602.2027  0.031394552  0.032645929  0.038856397   0.10289688   0.02368165   0.02470731  0.031966048  0.080355007 
   49000   -1793878.4     11992.94   -707.90466     77.00853    88.922483    81.249922    1592.1581  0.031845788  0.032856803  0.039025019   0.10372761  0.024699678  0.025411721   0.03123328  0.081344679 
   50000   -1793786.3    11982.798   -584.59166     77.00853    88.922483    81.249922    1590.8117  0.032063631  0.032430225  0.040476611   0.10497047  0.024673099  0.025365076  0.032847993  0.082886169 
   51000   -1793893.6    12033.702   -898.22161     77.00853    88.922483    81.249922    1597.5696  0.032463605  0.032976746  0.038196998   0.10363735  0.024745022  0.025840104  0.030336282  0.080921408 
   52000   -1793777.4    12019.126   -61.627903     77.00853    88.922483    81.249922    1595.6345  0.032459529  0.033333184  0.040565187    0.1063579  0.024806766  0.025083502  0.032417687  0.082307955 
   53000   -1793775.1    12014.939   -277.77859     77.00853    88.922483    81.249922    1595.0786  0.032388406  0.033097602  0.039264837   0.10475084   0.02459779  0.024947395  0.031159086  0.080704271 
   54000   -1793843.6    12037.024   -578.00458     77.00853    88.922483    81.249922    1598.0106  0.032466504   0.03195846  0.040327571   0.10475253  0.024958652  0.025226392  0.032327025  0.082512069 
   55000   -1793825.5    12030.875   -743.07167     77.00853    88.922483    81.249922    1597.1943  0.031700035  0.032327889  0.039799295   0.10382722  0.024535744   0.02542249  0.031971067  0.081929302 
   56000   -1793796.6    11987.546    -106.9939     77.00853    88.922483    81.249922    1591.4419  0.032184515  0.032246799  0.038386573   0.10281789  0.024407766  0.025769974  0.030331015  0.080508755 
   57000   -1793815.4    12100.873    24.573929     77.00853    88.922483    81.249922    1606.4871  0.032967729  0.031492858  0.040851472   0.10531206   0.02470557  0.025136178  0.032126898  0.081968646 
   58000   -1793812.3     12040.22   -603.75953     77.00853    88.922483    81.249922    1598.4349  0.032605222  0.031700911  0.039018827   0.10332496  0.024640352  0.024812832  0.031171531  0.080624714 
   59000   -1793863.1    12096.506   -648.29329     77.00853    88.922483    81.249922    1605.9073  0.032913133  0.033088921  0.039985266   0.10598732  0.024960994  0.025924582  0.032372138  0.083257714 
   60000   -1793790.5    12034.512    478.22006     77.00853    88.922483    81.249922    1597.6772  0.032581895   0.03094151  0.039432636   0.10295604  0.024915592  0.025038519  0.031895417  0.081849527 
   61000   -1793887.6    11984.338   -847.09424     77.00853    88.922483    81.249922    1591.0161  0.032590225   0.03160204  0.038950701   0.10314297  0.024723626  0.025281249  0.031204698  0.081209573 
   62000   -1793813.9    12123.241   -665.60991     77.00853    88.922483    81.249922    1609.4567  0.033044533  0.031757352  0.039755146   0.10455703  0.024829306  0.025124842  0.032045024  0.081999172 
   63000   -1793923.3    12053.209   -923.48776     77.00853    88.922483    81.249922    1600.1593  0.031865168    0.0320488  0.039422528    0.1033365  0.023998746  0.025316482   0.03177233  0.081087557 
   64000     -1793918     12117.14   -851.28879     77.00853    88.922483    81.249922    1608.6467  0.032669561  0.032134067  0.040826648   0.10563028  0.024829319  0.025078925  0.032798473  0.082706716 
   65000   -1793858.3    12046.783   -851.12879     77.00853    88.922483    81.249922    1599.3061  0.032387994  0.032250641  0.039111874   0.10375051  0.024361691  0.025273071   0.03039484  0.080029601 
   66000   -1793849.8    12031.976    -528.5525     77.00853    88.922483    81.249922    1597.3404  0.032863616  0.032524183  0.039102522   0.10449032  0.024700548  0.025447919  0.031096731  0.081245198 
   67000   -1793842.3    12063.233    -230.8505     77.00853    88.922483    81.249922    1601.4901  0.033252793  0.032181066  0.039687729   0.10512159   0.02503234   0.02520944  0.031460651   0.08170243 
   68000   -1793931.6     12098.69   -1160.1253     77.00853    88.922483    81.249922    1606.1972  0.032064621  0.032239072  0.039749172   0.10405286  0.024726059  0.025637929  0.031604276  0.081968264 
   69000   -1793850.6     12024.04   -545.63525     77.00853    88.922483    81.249922    1596.2869  0.031761832  0.031821156  0.040060047   0.10364303  0.024407913   0.02502659  0.031976731  0.081411234 
   70000     -1793856    12028.123   -720.05473     77.00853    88.922483    81.249922    1596.8289  0.031731615  0.031631527   0.03935102   0.10271416  0.023948371  0.025239297  0.031261812   0.08044948 
   71000     -1793857    12045.708   -733.34225     77.00853    88.922483    81.249922    1599.1634  0.032611562  0.031694221  0.040211529   0.10451731  0.024807303  0.025139832  0.032505986  0.082453121 
   72000   -1793859.7    11986.928   -329.54473     77.00853    88.922483    81.249922    1591.3599  0.031717242  0.031970077  0.038995805   0.10268312  0.024149286  0.025171462  0.030993577  0.080314325 
   73000   -1793784.5    12060.206   -415.92475     77.00853    88.922483    81.249922    1601.0882  0.032986711  0.032000899  0.040368944   0.10535656  0.025050404  0.025469332  0.032798539  0.083318275 
   74000   -1793827.6    12010.859   -697.69626     77.00853    88.922483    81.249922     1594.537  0.031721254  0.031955193  0.039372369   0.10304882  0.024309989  0.025694538  0.031328277  0.081332805 
   75000   -1793810.8     12015.28   -385.36195     77.00853    88.922483    81.249922     1595.124   0.03224551  0.031850996  0.038845499     0.102942  0.024809595  0.025939559   0.03114875  0.081897905 
   76000   -1793802.4    11986.181   -430.08475     77.00853    88.922483    81.249922    1591.2608  0.032411113  0.032378734  0.041242483   0.10603233  0.024787359  0.025430481  0.033196672  0.083414513 
   77000   -1793729.7    12026.968   -543.43966     77.00853    88.922483    81.249922    1596.6756   0.03166142  0.032774923  0.039961431   0.10439777  0.025177208  0.025849036   0.03218837  0.083214614 
   78000   -1793798.2    11992.215   -172.99799     77.00853    88.922483    81.249922    1592.0619   0.03181106  0.032697837  0.040564754   0.10507365  0.025812844  0.025480138  0.032398154  0.083691136 
   79000   -1793808.6    12058.262   -788.48497     77.00853    88.922483    81.249922    1600.8301  0.031832862  0.032625612  0.039891776   0.10435025  0.025051101  0.025731901  0.032176707  0.082959709 
   80000   -1793829.3    12063.025    -486.7955     77.00853    88.922483    81.249922    1601.4625  0.031901302  0.032540965  0.039169551   0.10361182  0.025076552  0.025905007  0.031338899  0.082320458 
   81000   -1793811.7    12085.896   -426.68351     77.00853    88.922483    81.249922    1604.4987  0.031291995  0.033441434  0.039724038   0.10445747  0.024359569  0.025539755   0.03232527  0.082224593 
   82000   -1793828.1     12012.84   -487.72618     77.00853    88.922483    81.249922    1594.7999  0.032519109  0.033064144  0.038396025   0.10397928  0.025243963  0.025359988  0.030620331  0.081224282 
   83000   -1793907.4    12055.233   -1067.3587     77.00853    88.922483    81.249922     1600.428  0.031603829  0.032598655  0.040022022   0.10422451  0.024707217  0.025906498  0.032322422  0.082936137 
   84000   -1793815.3      12119.1   -467.00119     77.00853    88.922483    81.249922    1608.9069  0.032178609    0.0327366  0.039520685   0.10443589  0.025118179  0.026455764  0.032038646   0.08361259 
   85000   -1793827.3    12034.909   -27.870877     77.00853    88.922483    81.249922    1597.7298  0.032379467  0.031755988  0.039542228   0.10367768  0.025426335  0.025693173   0.03174425  0.082863758 
   86000     -1793868    12004.841   -755.73445     77.00853    88.922483    81.249922    1593.7381   0.03172981  0.031833732  0.040027992   0.10359153  0.024076168  0.026231678  0.032209944   0.08251779 
   87000   -1793856.5    12027.342   -468.60023     77.00853    88.922483    81.249922    1596.7253  0.033026964   0.03147007  0.039325379   0.10382241  0.025731513  0.026042534  0.031017876  0.082791923 
   88000   -1793908.3     12066.34   -656.74742     77.00853    88.922483    81.249922    1601.9026  0.032530214  0.031444106  0.040042133   0.10401645  0.025164533  0.026063252  0.032504937  0.083732721 
   89000   -1793878.7    12026.087   -695.14537     77.00853    88.922483    81.249922    1596.5587  0.031938641  0.031647677  0.038666826   0.10225314  0.024655991  0.025852993  0.031188008  0.081696992 
   90000   -1793876.9    12038.536   -567.07823     77.00853    88.922483    81.249922    1598.2113  0.032120229  0.031916359  0.039424342   0.10346093  0.025139795   0.02594665  0.031263982  0.082350426 
   91000   -1793819.5    12009.395   -657.63672     77.00853    88.922483    81.249922    1594.3427  0.031664669   0.03176179    0.0398535   0.10327996  0.024759532  0.025768277  0.031965302  0.082493111 
   92000     -1793881    11959.461   -1310.2021     77.00853    88.922483    81.249922    1587.7136  0.032866609  0.031305479  0.039641177   0.10381327  0.025283771  0.025733399  0.032107216  0.083124386 
   93000   -1793862.9     12118.15   -408.05219     77.00853    88.922483    81.249922    1608.7808  0.032685579    0.0307959  0.039657232   0.10313871  0.025544843  0.025305314  0.031767866  0.082618023 
   94000   -1793835.3    12065.506   -243.51119     77.00853    88.922483    81.249922    1601.7918  0.032577355  0.032188954  0.040167788    0.1049341  0.025591957  0.025674698  0.032217902  0.083484557 
   95000   -1793866.8    11995.271   -759.40483     77.00853    88.922483    81.249922    1592.4676  0.031524779  0.032016218  0.040239357   0.10378035  0.024568952  0.026272261   0.03233483  0.083176043 
   96000   -1793842.3    12031.445   -48.829595     77.00853    88.922483    81.249922      1597.27  0.031898012  0.031891065  0.039387873   0.10317695  0.025202675  0.025911735  0.031375294  0.082489703 
   97000   -1793847.7    12055.653   -604.93857     77.00853    88.922483    81.249922    1600.4837  0.032037673  0.032194729  0.039601625   0.10383403  0.025028318  0.026495118  0.031740832  0.083264268 
   98000   -1793851.7    12083.488   -11.920186     77.00853    88.922483    81.249922    1604.1791  0.031712789  0.032346961  0.040510512   0.10457026  0.025344817  0.026163145  0.032790307  0.084298269 
   99000   -1793815.4    12013.354   -539.30469     77.00853    88.922483    81.249922    1594.8683  0.032318215  0.032065384  0.039047077   0.10343068   0.02529764  0.025384923  0.030930108  0.081612672 
  100000     -1793853    12088.877   -381.20473     77.00853    88.922483    81.249922    1604.8946  0.032346777  0.031871155  0.039852193   0.10407013  0.025923926  0.025823375  0.033035297  0.084782599 
  101000   -1793879.1    12023.984   -1090.4005     77.00853    88.922483    81.249922    1596.2795   0.03148869  0.032755427  0.039797054   0.10404117   0.02536058  0.026715582  0.032131052  0.084207215 
  102000   -1793861.4    12073.597   -456.71769     77.00853    88.922483    81.249922    1602.8659  0.031455875  0.032668592  0.040772478   0.10489695  0.025496675  0.025931042  0.032851242  0.084278959 
  103000   -1793779.7    12079.448    447.92437     77.00853    88.922483    81.249922    1603.6427  0.031069933  0.032404727  0.040050063   0.10352472  0.025011434  0.025450534  0.032056556  0.082518525 
  104000   -1793819.1    12080.096   -679.13184     77.00853    88.922483    81.249922    1603.7288  0.032054478  0.031684981  0.039212343    0.1029518  0.025819891  0.025017312  0.032128169  0.082965372 
  105000     -1793855    11983.035   -1202.6397     77.00853    88.922483    81.249922    1590.8432  0.033180406  0.032367564  0.039368319   0.10491629  0.026400809  0.025428007  0.031184912  0.083013729 
  106000   -1793810.2        12018   -429.43207     77.00853    88.922483    81.249922     1595.485  0.032525747  0.032313914  0.040145344     0.104985  0.026207521  0.025572649  0.032626542  0.084406712 
  107000   -1793809.3    12021.723   -687.70482     77.00853    88.922483    81.249922    1595.9793  0.031586307   0.03214511  0.041064957   0.10479637  0.024866803  0.025590463  0.033465352  0.083922618 
  108000     -1793882    12057.885   -435.13981     77.00853    88.922483    81.249922    1600.7801  0.031831817  0.031842486  0.038864684   0.10253899  0.024982455  0.026013463   0.03157118  0.082567098 
  109000   -1793893.8    12092.258   -654.89039     77.00853    88.922483    81.249922    1605.3434  0.032316771  0.031136927  0.040209525   0.10366322  0.025885436  0.024869956  0.032353649  0.083109041 
  110000     -1793841    12028.943   -739.33674     77.00853    88.922483    81.249922    1596.9378  0.032052893  0.031969144  0.039503406   0.10352544  0.025304213  0.025717765  0.032073781  0.083095759 
  111000   -1793873.7    12065.129   -986.06655     77.00853    88.922483    81.249922    1601.7418   0.03186823  0.031736477  0.039372981   0.10297769  0.024852628  0.025574659  0.031306191  0.081733479 
  112000   -1793824.9    12035.375   -581.20751     77.00853    88.922483    81.249922    1597.7917  0.032010903  0.032138281  0.039697594   0.10384678   0.02537958  0.025864619  0.031627018  0.082871217 
  113000   -1793876.7    12056.923   -876.77048     77.00853    88.922483    81.249922    1600.6524  0.032008095  0.032239121  0.038941975   0.10318919  0.025275989  0.025368119   0.03085585  0.081499957 
  114000     -1793774    12070.952   -296.13467     77.00853    88.922483    81.249922    1602.5148  0.032244323  0.032650379  0.039473318   0.10436802  0.025181372  0.025235621  0.032664811  0.083081804 
  115000   -1793864.9    12118.296   -795.20147     77.00853    88.922483    81.249922    1608.8002  0.032265888  0.032392945  0.039659279   0.10431811  0.025812323  0.025583226  0.031644387  0.083039937 
  116000   -1793818.4    12030.972   -188.07574     77.00853    88.922483    81.249922    1597.2071  0.032187575  0.032813164  0.039580753   0.10458149  0.025451908  0.026598874  0.032095846  0.084146628 
  117000   -1793842.2    12003.604   -282.41941     77.00853    88.922483    81.249922    1593.5739  0.031892688  0.033077305   0.03925238   0.10422237  0.025847799  0.026022938  0.032346728  0.084217464 
  118000   -1793922.8     12031.59   -1024.8321     77.00853    88.922483    81.249922    1597.2892  0.032294708  0.032033578  0.038724784   0.10305307  0.025339994  0.025874147  0.031415837  0.082629978 
  119000   -1793832.4    12081.952   -355.92806     77.00853    88.922483    81.249922    1603.9751  0.032619855  0.032611122  0.039726304   0.10495728  0.025886427  0.025907518  0.031595945   0.08338989 
  120000   -1793821.3    11946.745   -260.82868     77.00853    88.922483    81.249922    1586.0254  0.032076856  0.031744556  0.038682134   0.10250355  0.025722688  0.025471846  0.031729892  0.082924425 
  121000   -1793855.2    11994.902   -735.78645     77.00853    88.922483    81.249922    1592.4185   0.03264655   0.03201322  0.040347603   0.10500737  0.026443735  0.025748767   0.03263726  0.084829762 
  122000   -1793809.8     11997.46   -677.62516     77.00853    88.922483    81.249922    1592.7582  0.032238326  0.032107258  0.039315985   0.10366157  0.025780138  0.026059539  0.031908834  0.083748511 
  123000   -1793854.6    12110.356   -740.51902     77.00853    88.922483    81.249922     1607.746  0.032680167  0.032056589  0.039456807   0.10419356  0.026507732  0.025721881  0.032103851  0.084333465 
  124000   -1793874.8    12068.075   -518.36573     77.00853    88.922483    81.249922    1602.1329  0.033007637  0.031805081  0.039988482    0.1048012  0.026326615  0.025461632  0.032825679  0.084613926 
  125000   -1793806.3     12039.06   -234.09271     77.00853    88.922483    81.249922    1598.2809   0.03241144  0.032108778  0.039086907   0.10360713  0.025906001  0.026090327  0.032072787  0.084069116 
  126000   -1793857.3    12051.743   -591.49953     77.00853    88.922483    81.249922    1599.9646  0.032315284  0.032347417  0.040156717   0.10481942  0.025884242  0.025770744  0.032689737  0.084344723 
  127000   -1793854.4    12042.187   -795.86828     77.00853    88.922483    81.249922     1598.696  0.032720184  0.032615807  0.038454385   0.10379038  0.025562042  0.026025174  0.030739035   0.08232625 
  128000   -1793859.7     12013.43   -747.26373     77.00853    88.922483    81.249922    1594.8783  0.032386631  0.031501645  0.039961807   0.10385008  0.025679531  0.025216653  0.032128734  0.083024918 
  129000   -1793858.4    12072.757   -359.84238     77.00853    88.922483    81.249922    1602.7545  0.032042897   0.03218175  0.040200402   0.10442505  0.025725749   0.02577283  0.032185858  0.083684437 
  130000   -1793871.4    12116.986   -506.55251     77.00853    88.922483    81.249922    1608.6262  0.032187735  0.032197405  0.039508929   0.10389407   0.02652662  0.026090615  0.031748477  0.084365712 
  131000   -1793822.1    11992.242   -374.37962     77.00853    88.922483    81.249922    1592.0655  0.032383198  0.031600011    0.0404568   0.10444001  0.025509708  0.025462643  0.032942438  0.083914789 
  132000   -1793900.2    11996.303   -1298.3997     77.00853    88.922483    81.249922    1592.6045  0.031483712   0.03214364  0.038264044    0.1018914  0.025119988  0.025843849  0.031577959  0.082541796 
  133000     -1793878    12055.565   -997.24693     77.00853    88.922483    81.249922     1600.472  0.031732571  0.033206906  0.040183535   0.10512301    0.0255345  0.026398206  0.032116994    0.0840497 
  134000   -1793813.1    12046.202    -717.0717     77.00853    88.922483    81.249922    1599.2291   0.03214554   0.03225786  0.038403447   0.10280685  0.025889578  0.025957838   0.03094603  0.082793447 
  135000   -1793845.4    12016.978   -679.35152     77.00853    88.922483    81.249922    1595.3493  0.032032698  0.032191769  0.039808606   0.10403307  0.025557234  0.025492773  0.032401438  0.083451445 
  136000   -1793869.1    12117.781   -587.71601     77.00853    88.922483    81.249922    1608.7317  0.031951766  0.032591681  0.041594955    0.1061384  0.025922987  0.025919822  0.033602792  0.085445602 
  137000   -1793838.7    12078.421     -737.566     77.00853    88.922483    81.249922    1603.5063  0.032128685  0.032621297  0.038883735   0.10363372  0.025557738  0.026012771   0.03181836  0.083388869 
  138000   -1793792.5    12026.764   -821.42868     77.00853    88.922483    81.249922    1596.6486  0.032491587  0.032171744  0.039537498   0.10420083  0.025900266  0.025470512  0.031749687  0.083120465 
  139000   -1793945.1      12116.1   -911.00482     77.00853    88.922483    81.249922    1608.5086  0.032168734  0.032987596  0.039080836   0.10423717  0.025722689  0.026448484  0.031719324  0.083890496 
  140000   -1793860.9    12130.696   -698.30245     77.00853    88.922483    81.249922    1610.4463  0.032319453  0.031625868  0.038602633   0.10254795  0.025772676  0.025169797  0.031542511  0.082484984 
  141000   -1793777.4    12097.042   -196.32748     77.00853    88.922483    81.249922    1605.9784  0.032963942  0.031425055  0.040591428   0.10498042  0.025987103  0.025743758  0.032669579  0.084400439 
  142000   -1793882.1    12048.317   -772.41743     77.00853    88.922483    81.249922    1599.5098  0.032385035  0.031631141  0.038940944   0.10295712  0.025238311  0.025624881  0.030821732  0.081684923 
  143000   -1793810.7    12023.694   -481.12097     77.00853    88.922483    81.249922     1596.241  0.032255836  0.031697438  0.040166997   0.10412027  0.025652883  0.025635995  0.032504064  0.083792942 
  144000     -1793830    12099.972   -799.21809     77.00853    88.922483    81.249922    1606.3674  0.032214245   0.03185811  0.039519526   0.10359188  0.025798874  0.025723232  0.031692931  0.083215037 
  145000   -1793804.9    12015.384   -193.28476     77.00853    88.922483    81.249922    1595.1377  0.031877024  0.031020806  0.040011109   0.10290894  0.025598649   0.02595457  0.032683861   0.08423708 
  146000     -1793939    12006.888    -1215.479     77.00853    88.922483    81.249922    1594.0099  0.033001318  0.030981837  0.039557083   0.10354024   0.02632623  0.025589279   0.03252902  0.084444529 
  147000   -1793804.9    12060.548    -240.3278     77.00853    88.922483    81.249922    1601.1335  0.032267445  0.032217433   0.03912397   0.10360885   0.02533782  0.026683847  0.031373752  0.083395418 
  148000   -1793838.8    12060.723   -803.16715     77.00853    88.922483    81.249922    1601.1568  0.032408353  0.031915585  0.040717643   0.10504158  0.025513513  0.026394176  0.033196007  0.085103696 
  149000     -1793900    12030.952   -808.01762     77.00853    88.922483    81.249922    1597.2046  0.032943561  0.031960071  0.038871495   0.10377513  0.026018041   0.02575825  0.031297771  0.083074062 
  150000   -1793896.1    12057.282   -638.45863     77.00853    88.922483    81.249922    1600.7001  0.033707357   0.03128825  0.039609514   0.10460512  0.026401155  0.025668368  0.031843511  0.083913035 
  151000   -1793828.3    12111.459   -157.70073     77.00853    88.922483    81.249922    1607.8924   0.03322905  0.031117942  0.039743815   0.10409081  0.026059098  0.025970995  0.031917583  0.083947676 
  152000   -1793883.3     12093.01   -439.35164     77.00853    88.922483    81.249922    1605.4432   0.03357641  0.031545375  0.039728644   0.10485043  0.026267529  0.025516832  0.031819613  0.083603975 
  153000   -1793889.6    11984.725   -1323.2768     77.00853    88.922483    81.249922    1591.0675  0.033559778  0.030765313  0.039975009    0.1043001  0.026191871  0.025317517  0.032950707  0.084460095 
  154000   -1793888.3    12096.858   -646.52309     77.00853    88.922483    81.249922     1605.954  0.033420365  0.030997518  0.038918239   0.10333612  0.025421347  0.025767776  0.030879532  0.082068655 
  155000   -1793811.4    12027.738   -315.11169     77.00853    88.922483    81.249922    1596.7778   0.03311647  0.032234015  0.040651216    0.1060017  0.026062795  0.025973922   0.03255097  0.084587687 
  156000   -1793926.6    12080.097   -868.71125     77.00853    88.922483    81.249922    1603.7289  0.032325239  0.031120685  0.039724962   0.10317089   0.02534881   0.02548303   0.03134488   0.08217672 
  157000   -1793795.2    12013.615   -337.03751     77.00853    88.922483    81.249922    1594.9028  0.032530932  0.031594748  0.039977144   0.10410282  0.025212715  0.026218694  0.032169827  0.083601236 
  158000   -1793787.3    12065.662   -463.87829     77.00853    88.922483    81.249922    1601.8125   0.03300059  0.031171864  0.040169609   0.10434206  0.025641558  0.025884743  0.033049071  0.084575372 
  159000   -1793905.9    12011.378   -968.16078     77.00853    88.922483    81.249922    1594.6059  0.032702208  0.031307964  0.039044464   0.10305464  0.025732479  0.025824191  0.031811356  0.083368027 
  160000   -1793863.4    12019.448   -243.77082     77.00853    88.922483    81.249922    1595.6772  0.032661347  0.031219544  0.040911531   0.10479242  0.025346148  0.025352796  0.033710403  0.084409347 
  161000   -1793772.8    12072.769    366.19448     77.00853    88.922483    81.249922    1602.7561  0.032155139  0.030962735  0.039039318   0.10215719  0.026002545  0.025184365  0.031338428  0.082525338 
  162000   -1793844.3    12068.532   -1166.2202     77.00853    88.922483    81.249922    1602.1936  0.032944608  0.032522775  0.039609837   0.10507722   0.02553078  0.026495564  0.032118996   0.08414534 
  163000   -1793856.1    12027.724    -1158.884     77.00853    88.922483    81.249922     1596.776  0.032169912  0.031817011  0.039619644   0.10360657    0.0252231  0.025981559  0.032157376  0.083362035 
  164000   -1793860.1    11999.651   -1116.4971     77.00853    88.922483    81.249922     1593.049  0.032846966  0.032301882  0.039527267   0.10467612  0.025810647  0.026324277  0.032437735   0.08457266 
  165000   -1793863.5    12096.676   -304.68903     77.00853    88.922483    81.249922    1605.9299  0.032320033  0.032181821  0.040237776   0.10473963  0.025642002  0.026215319  0.032916581  0.084773901 
  166000   -1793870.3    12064.711   -800.74391     77.00853    88.922483    81.249922    1601.6863  0.032477267  0.032291678  0.039805485   0.10457443  0.025705521   0.02623421  0.032044642  0.083984373 
  167000   -1793902.7    12032.671   -955.16556     77.00853    88.922483    81.249922    1597.4327  0.032093411  0.031589788  0.041907488   0.10559069  0.025742961  0.025512763  0.034234243  0.085489967 
  168000   -1793891.4     12049.34   -591.03075     77.00853    88.922483    81.249922    1599.6457  0.031479828   0.03206904  0.039017568   0.10256644  0.025764412   0.02579061   0.03222885  0.083783872 
  169000   -1793843.7    12049.987    -729.4384     77.00853    88.922483    81.249922    1599.7315  0.031612399  0.032636449  0.038733151     0.102982  0.025665888  0.026433144  0.031292031  0.083391063 
  170000   -1793886.6    12028.494   -986.84555     77.00853    88.922483    81.249922    1596.8782  0.032108866  0.032014047   0.04077076   0.10489367  0.025404925  0.025892161  0.033244555   0.08454164 
  171000   -1793866.3     12052.11   -536.37461     77.00853    88.922483    81.249922    1600.0134  0.032906268  0.031219765  0.039552099   0.10367813  0.026571305  0.025942487  0.031882886  0.084396678 
  172000   -1793808.1    12059.799   -36.930147     77.00853    88.922483    81.249922    1601.0342  0.033125859  0.032912686  0.040763624   0.10680217  0.026255047  0.026607213  0.033321214  0.086183473 
  173000   -1793828.6    12048.778    22.581094     77.00853    88.922483    81.249922     1599.571  0.033155395  0.032362514  0.039706172   0.10522408  0.026658151  0.025965025  0.032139133  0.084762309 
  174000   -1793863.3    11989.665   -693.66776     77.00853    88.922483    81.249922    1591.7233  0.032420973  0.031561316  0.038799557   0.10278185  0.025575653  0.025725683  0.031188171  0.082489507 
  175000   -1793867.1    12070.878   -963.39568     77.00853    88.922483    81.249922     1602.505  0.032090194  0.031439807  0.039651919   0.10318192  0.025385674  0.026256682  0.031785346  0.083427702 
  176000   -1793841.4    12054.788   -853.00647     77.00853    88.922483    81.249922     1600.369  0.032403987  0.030990836    0.0389243   0.10231912  0.025930485  0.025975507  0.031341003  0.083246996 
  177000   -1793884.8    12027.633    -535.8509     77.00853    88.922483    81.249922    1596.7639  0.032888547  0.031545818   0.04019922   0.10463358  0.026667173  0.025724937  0.033032722  0.085424831 
  178000   -1793796.3    12069.133   -690.23087     77.00853    88.922483    81.249922    1602.2733   0.03235994  0.031939262  0.039114871   0.10341407   0.02610639   0.02542468  0.031888459  0.083419528 
  179000   -1793852.6    12054.016   -611.23012     77.00853    88.922483    81.249922    1600.2664  0.032845298  0.032971728  0.040071175    0.1058882  0.026250448  0.026171427  0.032152585   0.08457446 
  180000   -1793858.5    12112.929   -1032.9767     77.00853    88.922483    81.249922    1608.0877  0.032127408  0.032474012  0.039575096   0.10417652  0.025796882  0.026778572  0.031621592  0.084197046 
  181000   -1793818.5    12062.384   -454.24905     77.00853    88.922483    81.249922    1601.3774  0.032909656  0.032694349  0.038734195    0.1043382  0.025956661  0.026030997  0.030959094  0.082946752 
  182000   -1793832.9    12034.417   -835.08107     77.00853    88.922483    81.249922    1597.6645  0.032669403    0.0336814  0.041304756   0.10765556  0.025655526  0.026811292   0.03301211  0.085478928 
  183000   -1793847.2    12046.518   -216.87764     77.00853    88.922483    81.249922     1599.271  0.032507988  0.032259204  0.038422103   0.10318929  0.025758644  0.025772284  0.031532547  0.083063476 
  184000   -1793914.8    12040.025   -1269.5515     77.00853    88.922483    81.249922     1598.409   0.03291479  0.032791015  0.040177937   0.10588374  0.026611767  0.026360468   0.03259725  0.085569485 
  185000     -1793832    12068.373   -1086.1273     77.00853    88.922483    81.249922    1602.1724  0.032654904   0.03354063  0.040175887   0.10637142   0.02571055  0.026353455  0.032949003  0.085013008 
  186000   -1793891.7    12013.309   -703.23938     77.00853    88.922483    81.249922    1594.8622   0.03319546  0.033235738   0.03924231   0.10567351  0.026479129  0.026082146  0.031587221  0.084148496 
  187000   -1793896.3    12057.332    -639.7699     77.00853    88.922483    81.249922    1600.7067  0.033140353  0.032755358  0.039580327   0.10547604  0.026263349  0.026032786  0.032154177  0.084450312 
  188000   -1793923.1    12048.739   -1220.9576     77.00853    88.922483    81.249922    1599.5658  0.032410821  0.033439043  0.038371371   0.10422123  0.025869905  0.026527125  0.030892324  0.083289355 
  189000   -1793826.1    12052.195   -772.28505     77.00853    88.922483    81.249922    1600.0246  0.032903257  0.033259715  0.040225962   0.10638893  0.026132353   0.02668314  0.032946353  0.085761847 
  190000   -1793805.8    12044.334   -358.86913     77.00853    88.922483    81.249922    1598.9811  0.032464084  0.033773525  0.039114329   0.10535194   0.02600184  0.027251024  0.031577486   0.08483035 
  191000   -1793790.8     12075.52   -378.85237     77.00853    88.922483    81.249922    1603.1213  0.031620323  0.033113678   0.04030873   0.10504273  0.025716318  0.026072923  0.033006378  0.084795619 
  192000   -1793871.3    11991.977   -557.77592     77.00853    88.922483    81.249922    1592.0303  0.032228542  0.033333907  0.040434205   0.10599665  0.025617767  0.026694997  0.032790374  0.085103138 
  193000   -1793810.9    12042.847    -609.2932     77.00853    88.922483    81.249922    1598.7837  0.033137655  0.033238255  0.039814189    0.1061901  0.026150275    0.0269938  0.032152844  0.085296919 
  194000   -1793841.3    12023.965   -412.23943     77.00853    88.922483    81.249922    1596.2769  0.033146711  0.032603223   0.04017404   0.10592397  0.026649253  0.026304178  0.032601503  0.085554933 
  195000   -1793890.2    12076.031   -953.21909     77.00853    88.922483    81.249922    1603.1891  0.033162472  0.033763921  0.040123205    0.1070496  0.026393561  0.027252704   0.03213291  0.085779175 
  196000   -1793835.8    12082.723    -574.9336     77.00853    88.922483    81.249922    1604.0775  0.033386133   0.03303946  0.040128714   0.10655431  0.026070263  0.026248758  0.032354137  0.084673158 
  197000   -1793782.9    12091.932   -432.21471     77.00853    88.922483    81.249922       1605.3  0.032899832  0.032529871  0.040263349   0.10569305  0.025876058  0.026283088  0.031844741  0.084003887 
  198000   -1793931.5    12041.205   -1008.6632     77.00853    88.922483    81.249922    1598.5656   0.03355797   0.03265651  0.039472539   0.10568702  0.027586589  0.026565723  0.031644507  0.085796819 
  199000   -1793847.2    11983.634   -1058.4395     77.00853    88.922483    81.249922    1590.9227  0.032798462  0.032956988  0.039948674   0.10570412  0.026287627  0.026471909  0.032036576  0.084796112 
  200000   -1793929.1    12022.198   -1179.9945     77.00853    88.922483    81.249922    1596.0423   0.03226751  0.033112682  0.038932294   0.10431249  0.026101988  0.026808966  0.031778467  0.084689421 
  201000   -1793896.7    12016.916   -982.02527     77.00853    88.922483    81.249922    1595.3412  0.031850482  0.032608984  0.040796291   0.10525576  0.025624953   0.02617935  0.032358075  0.084162378 
  202000   -1793835.2    12050.192   -790.50136     77.00853    88.922483    81.249922    1599.7588  0.032039761  0.033374167  0.039966914   0.10538084  0.026065532  0.027248841  0.031537987   0.08485236 
  203000   -1793910.1    12093.338   -982.77437     77.00853    88.922483    81.249922    1605.4867  0.033721964  0.033159459  0.040771504   0.10765293  0.027254127   0.02663889  0.031792028  0.085685046 
  204000   -1793897.1    12046.067   -790.31963     77.00853    88.922483    81.249922    1599.2111  0.033019796  0.032867951  0.041067622   0.10695537  0.026597287  0.026870686  0.032372357   0.08584033 
  205000   -1793816.8    12137.072    42.764389     77.00853    88.922483    81.249922    1611.2928  0.032752314  0.032484475  0.039687697   0.10492449  0.026180665  0.026249311  0.031815652  0.084245628 
  206000   -1793777.3    12072.618   -279.06218     77.00853    88.922483    81.249922     1602.736  0.032955327  0.032903265  0.039421401   0.10527999  0.026540856  0.026477667  0.031792038   0.08481056 
  207000   -1793832.2    12051.697   -545.84019     77.00853    88.922483    81.249922    1599.9586   0.03252771  0.033203558  0.039593912   0.10532518  0.025958941  0.027134221  0.031521924  0.084615086 
  208000   -1793796.8    12097.542   -523.64858     77.00853    88.922483    81.249922    1606.0449  0.033741925  0.033067038  0.040106209   0.10691517  0.027326763  0.026296087  0.032100158  0.085723008 
  209000   -1793848.9    12141.423   -387.52171     77.00853    88.922483    81.249922    1611.8704    0.0320884  0.033076979  0.039180693   0.10434607  0.026968238  0.027108285  0.031504602  0.085581125 
  210000   -1793813.9    12083.367   -537.29744     77.00853    88.922483    81.249922     1604.163  0.031853012  0.033141362  0.040825475   0.10581985  0.025814746  0.026997756  0.033182164  0.085994667 
  211000     -1793881    12055.439   -933.77399     77.00853    88.922483    81.249922    1600.4554  0.031806567  0.032791814  0.040381606   0.10497999  0.026199288  0.026316082  0.032804563  0.085319934 
  212000   -1793849.8    11998.394   -847.04523     77.00853    88.922483    81.249922    1592.8822  0.032079581  0.032580754  0.039058361    0.1037187  0.026538713  0.026554871  0.031626337  0.084719921 
  213000   -1793899.7    12063.745   -1190.3763     77.00853    88.922483    81.249922     1601.558  0.032447291  0.032702478  0.040261333    0.1054111  0.026344067  0.026288304  0.032962076  0.085594447 
  214000   -1793905.4    12006.694   -1233.0365     77.00853    88.922483    81.249922     1593.984  0.031527374   0.03342904  0.039961684    0.1049181  0.026053334    0.0268758  0.032398421  0.085327555 
  215000   -1793754.6    11983.991   -47.217282     77.00853    88.922483    81.249922    1590.9701  0.033297912  0.033189293  0.040171118   0.10665832  0.026895579  0.026805098  0.032757501  0.086458178 
  216000   -1793821.9    12084.368   -503.37599     77.00853    88.922483    81.249922    1604.2959  0.031389461  0.033583476  0.038797738   0.10377067  0.025310152  0.026877247  0.031435857  0.083623257 
  217000   -1793841.9    12104.961   -624.48671     77.00853    88.922483    81.249922    1607.0298  0.031884439  0.034576312  0.039563231   0.10602398  0.026266606  0.027807687  0.032406834  0.086481126 
  218000   -1793801.6    11965.854    -401.0766     77.00853    88.922483    81.249922    1588.5622  0.032452508  0.033597133  0.040032444   0.10608209  0.026674297  0.026696067  0.032350352  0.085720716 
  219000   -1793996.8     12095.21   -814.59818     77.00853    88.922483    81.249922    1605.7353  0.031322162  0.032883244  0.039129738   0.10333514  0.025619329  0.026097271  0.031303365  0.083019965 
  220000   -1793909.4    12086.866   -1389.1649     77.00853    88.922483    81.249922    1604.6275  0.032145965  0.034476235  0.040968402    0.1075906   0.02640031  0.027737724  0.033531248  0.087669282 
  221000   -1793896.1     11971.53   -828.26686     77.00853    88.922483    81.249922    1589.3158  0.032125081  0.033265033  0.039599771   0.10498988   0.02587417  0.026833528  0.031655102    0.0843628 
  222000   -1793746.8    11997.223   -466.95595     77.00853    88.922483    81.249922    1592.7266  0.032243329  0.033402967  0.041181711   0.10682801  0.026273052  0.026853326  0.032932701  0.086059078 
  223000   -1793839.2    11995.741   -592.05791     77.00853    88.922483    81.249922      1592.53  0.032337635  0.033467566  0.041218292   0.10702349  0.026415175  0.026515316  0.033710064  0.086640555 
  224000     -1793887    12046.167   -562.84999     77.00853    88.922483    81.249922    1599.2244   0.03199293  0.033829933  0.039750259   0.10557312  0.025904815  0.027507258  0.032050288  0.085462361 
  225000   -1793819.6    12022.153    -679.5879     77.00853    88.922483    81.249922    1596.0363  0.031751358  0.033282584  0.040861136   0.10589508  0.025876647  0.026525677  0.032569804  0.084972127 
  226000     -1793824    12094.651   -408.32277     77.00853    88.922483    81.249922     1605.661  0.032311197   0.03467929  0.039543493   0.10653398  0.026771959  0.028286123  0.031753951  0.086812033 
  227000   -1793849.8    12044.563   -568.09773     77.00853    88.922483    81.249922    1599.0114  0.032796485  0.033596743  0.040429256   0.10682248  0.026310424  0.027568412  0.032250885  0.086129722 
  228000   -1793848.3    12015.585   -899.86211     77.00853    88.922483    81.249922    1595.1644   0.03233411  0.033311801  0.039333704   0.10497961  0.026450644  0.026902876  0.031608426  0.084961946 
  229000   -1793845.7    12001.477   -764.97664     77.00853    88.922483    81.249922    1593.2914  0.032519537  0.033596655  0.040001188   0.10611738  0.026128497  0.026953535  0.032363002  0.085445034 
  230000   -1793880.6    12020.471   -637.74648     77.00853    88.922483    81.249922    1595.8131  0.032423523  0.033032959  0.041811471   0.10726795  0.026630529  0.026692787  0.033497678  0.086820994 
  231000     -1793835    12053.443   -772.28754     77.00853    88.922483    81.249922    1600.1904  0.032433501  0.034155657  0.040587295   0.10717645  0.026843499  0.027914517  0.032658698  0.087416714 
  232000   -1793872.5    12068.227   -1015.2767     77.00853    88.922483    81.249922     1602.153  0.032271689  0.034394963  0.039271923   0.10593858  0.026106384  0.028016894  0.032144686  0.086267964 
  233000   -1793931.8    12083.707   -489.45357     77.00853    88.922483    81.249922    1604.2081  0.032976797  0.033560875  0.040021207   0.10655888   0.02671326  0.026946883  0.032897141  0.086557284 
  234000   -1793864.1    12071.473   -697.80261     77.00853    88.922483    81.249922    1602.5839  0.033043172  0.033881237  0.039332536   0.10625695  0.026977612  0.027435541  0.031636154  0.086049307 
  235000   -1793876.2    12092.637   -1038.3883     77.00853    88.922483    81.249922    1605.3937  0.032162675  0.033157455  0.040370963   0.10569109  0.026624802  0.027148546  0.032473431   0.08624678 
  236000   -1793860.6     12106.83   -699.63443     77.00853    88.922483    81.249922    1607.2779  0.031918766  0.034046951  0.040105108   0.10607082   0.02651882  0.027871282  0.032594749  0.086984851 
  237000   -1793874.5    12070.022   -877.15393     77.00853    88.922483    81.249922    1602.3913   0.03164279  0.033282365  0.039527221   0.10445238  0.025950805  0.027344817    0.0317968  0.085092422 
  238000   -1793871.9    12110.155   -915.31995     77.00853    88.922483    81.249922    1607.7193  0.031999436  0.034096385  0.041102375    0.1071982  0.026161524  0.027937531  0.032698905  0.086797961 
  239000   -1793835.2    12078.327   -178.26028     77.00853    88.922483    81.249922    1603.4939  0.032996554  0.033934399  0.039397134   0.10632809   0.02667634  0.027876431  0.031837343  0.086390114 
  240000   -1793882.1    12086.953   -296.01221     77.00853    88.922483    81.249922    1604.6391   0.03281924  0.032792876  0.040653488    0.1062656    0.0265415  0.026596073  0.033086035  0.086223608 
  241000   -1793828.6    12006.812   -78.669408     77.00853    88.922483    81.249922    1593.9998  0.031816818  0.033821156   0.04076376   0.10640173  0.025824254  0.028041775  0.032135386  0.086001415 
  242000   -1793894.2    12066.815   -1124.2104     77.00853    88.922483    81.249922    1601.9656  0.032157141  0.033141517  0.039967752   0.10526641  0.026016875   0.02713077  0.032385991  0.085533636 
  243000   -1793808.9    12101.693   -641.82521     77.00853    88.922483    81.249922    1606.5959  0.032910641   0.03277023  0.040536345   0.10621722  0.027324608  0.027497281  0.032378319  0.087200208 
  244000   -1793853.6    12043.819   -769.13505     77.00853    88.922483    81.249922    1598.9127  0.032070216  0.034079066   0.03983075   0.10598003  0.026377437  0.028038669   0.03262419  0.087040297 
  245000   -1793820.5    12016.453     -531.849     77.00853    88.922483    81.249922    1595.2796  0.032826872  0.032993878  0.041586009   0.10740676  0.026952792  0.027260482  0.033334047  0.087547321 
  246000   -1793809.4    12100.936    128.28943     77.00853    88.922483    81.249922    1606.4955  0.032059212  0.033763116  0.039781437   0.10560376  0.026260019  0.027717353  0.031240852  0.085218224 
  247000   -1793877.8    12067.878   -140.66165     77.00853    88.922483    81.249922    1602.1068  0.032159393   0.03340828  0.040450789   0.10601846  0.026171459  0.027340172  0.032926062  0.086437693 
  248000     -1793904    12099.524   -790.64952     77.00853    88.922483    81.249922    1606.3079  0.033232016  0.033010256  0.039918925    0.1061612   0.02668287  0.027474377  0.032355156  0.086512403 
  249000   -1793816.5    12089.341    85.824679     77.00853    88.922483    81.249922    1604.9561  0.032831646  0.033228317  0.039435725   0.10549569  0.026529629  0.027168474  0.031430476  0.085128579 
  250000   -1793851.4    12067.112   -784.73115     77.00853    88.922483    81.249922    1602.0051  0.031759963  0.033075057   0.04072687   0.10556189  0.026342554  0.028021355  0.032844209  0.087208118 
  251000   -1793861.9    12104.584   -837.06741     77.00853    88.922483    81.249922    1606.9797  0.032156527  0.034099074  0.040100336   0.10635594  0.026862739  0.028460642  0.031389848  0.086713229 
  252000   -1793905.6    12065.364   -912.76733     77.00853    88.922483    81.249922    1601.7729  0.032778807   0.03329085  0.041615325   0.10768498  0.026669584   0.02727251  0.033342324  0.087284418 
  253000   -1793795.1    12030.618   -37.735498     77.00853    88.922483    81.249922    1597.1602  0.032139399  0.033077919  0.040638363   0.10585568  0.025614158  0.027515319   0.03263094  0.085760417 
  254000   -1793838.1    12039.997   -560.49408     77.00853    88.922483    81.249922    1598.4053  0.032665456  0.033098481  0.040026342   0.10579028  0.026259625  0.027036782   0.03191899  0.085215397 
  255000   -1793911.5    12011.063   -807.24946     77.00853    88.922483    81.249922    1594.5641  0.033084966  0.032770639  0.040162819   0.10601842  0.027216505  0.027408204  0.032157418  0.086782127 
  256000   -1793906.2    12090.183   -661.07675     77.00853    88.922483    81.249922    1605.0679   0.03174565  0.033783385  0.040003213   0.10553225  0.025719868  0.027306284  0.032296843  0.085322996 
  257000   -1793945.9    12025.891    -1180.648     77.00853    88.922483    81.249922    1596.5327  0.031883726  0.033467404  0.040087129   0.10543826  0.026195828   0.02807234  0.032188035  0.086456203 
  258000   -1793858.9    11949.649   -559.61927     77.00853    88.922483    81.249922    1586.4109  0.032594009  0.033086997  0.041499846   0.10718085  0.026811801  0.027425652  0.033043016  0.087280469 
  259000   -1793859.1    12054.099    -942.7651     77.00853    88.922483    81.249922    1600.2774  0.032778264  0.032973321  0.040098892   0.10585048  0.026579132  0.027358423  0.031764575   0.08570213 
  260000   -1793799.6    12099.317   -65.374639     77.00853    88.922483    81.249922    1606.2805  0.032348577  0.032843803  0.042963018    0.1081554  0.026657496  0.027426629  0.033715792  0.087799917 
  261000   -1793875.5    12078.067   -534.23946     77.00853    88.922483    81.249922    1603.4594   0.03311592  0.033478359   0.03963785   0.10623213  0.027038546  0.028282628  0.031459511  0.086780684 
  262000   -1793898.3     12063.28   -1121.3839     77.00853    88.922483    81.249922    1601.4963  0.032990992  0.033428667  0.041078911   0.10749857   0.02670524  0.028475017  0.032789966  0.087970224 
  263000   -1793863.2    12082.677   -359.54792     77.00853    88.922483    81.249922    1604.0714   0.03320248  0.033483286  0.042308744   0.10899451  0.026558138  0.027356514  0.034193423  0.088108075 
  264000     -1793933    12036.308   -1645.0648     77.00853    88.922483    81.249922    1597.9155  0.032518378  0.033261554  0.039831024   0.10561096  0.026155348  0.027321775  0.031606369  0.085083492 
  265000   -1793852.9    12029.333   -825.21608     77.00853    88.922483    81.249922    1596.9896  0.033354366  0.033423665  0.040805831   0.10758386  0.027067073  0.027838034   0.03299587  0.087900977 
  266000   -1793823.4    12062.632   -628.12944     77.00853    88.922483    81.249922    1601.4103  0.033167895  0.033405215  0.039977264   0.10655037  0.026063532  0.027791019  0.031789432  0.085643984 
  267000   -1793788.3    12153.602   -49.414263     77.00853    88.922483    81.249922    1613.4872  0.033357901  0.033327451  0.041094006   0.10777936  0.026370858  0.027910426  0.032345516    0.0866268 
  268000   -1793846.2     12055.17    62.024285     77.00853    88.922483    81.249922    1600.4196  0.033527569  0.033823579  0.040748156    0.1080993  0.027157417  0.028015057  0.032894795  0.088067269 
  269000   -1793871.3     12017.81    -628.8881     77.00853    88.922483    81.249922    1595.4597  0.033137949  0.033241632  0.040396789   0.10677637  0.026844249  0.028002553  0.031859765  0.086706567 
  270000   -1793850.3    11967.836   -782.11036     77.00853    88.922483    81.249922    1588.8253  0.034058168  0.033049004  0.041508725    0.1086159  0.027274357  0.027396476  0.033738052  0.088408885 
  271000     -1793853    12034.561   -934.48482     77.00853    88.922483    81.249922    1597.6836  0.033145364  0.033676184  0.039365219   0.10618677  0.026379922  0.027784818  0.031229165  0.085393905 
  272000   -1793849.1    12029.028    -443.5073     77.00853    88.922483    81.249922    1596.9491  0.033188834  0.033135744  0.041339663   0.10766424  0.026947379  0.027691199  0.032919504  0.087558082 
  273000   -1793802.8    12037.774   -210.78294     77.00853    88.922483    81.249922    1598.1102  0.033314645   0.03404829  0.040936681   0.10829962  0.026538509  0.028237714   0.03252827  0.087304493 
  274000     -1793772    12075.861   -164.69126     77.00853    88.922483    81.249922    1603.1666  0.032686829  0.034047291  0.040597275   0.10733139  0.026806337  0.027634233  0.031951829  0.086392399 
  275000     -1793854    12001.372   -231.56237     77.00853    88.922483    81.249922    1593.2775  0.032878707  0.034716888  0.041780962   0.10937656  0.026843943   0.02797254  0.033667619  0.088484102 
  276000   -1793946.8     12055.05    -1055.135     77.00853    88.922483    81.249922    1600.4037  0.031843803  0.033309204   0.03920212   0.10435513  0.026114399  0.027543264  0.031400601  0.085058264 
  277000   -1793891.1    12024.187   -868.30193     77.00853    88.922483    81.249922    1596.3065  0.032566056  0.033672589  0.042106512   0.10834516  0.027063967  0.027045484  0.033271976  0.087381427 
  278000   -1793879.3    12043.391   -506.58199     77.00853    88.922483    81.249922    1598.8559  0.032014876  0.033414622  0.039968986   0.10539848  0.026747168  0.027280441  0.031810471   0.08583808 
  279000   -1793817.9     12055.78   -541.83631     77.00853    88.922483    81.249922    1600.5006  0.032049165  0.033787793   0.04077362   0.10661058  0.026854606  0.027705007  0.032759459  0.087319072 
  280000   -1793852.5    12067.755   -466.99855     77.00853    88.922483    81.249922    1602.0904  0.032183184  0.033830401    0.0422772   0.10829078  0.027156497  0.027394678  0.033533276  0.088084451 
  281000   -1793826.7     12012.57   -295.45542     77.00853    88.922483    81.249922    1594.7642  0.032833519  0.033175798  0.040405198   0.10641451   0.02665247  0.027090787  0.031975899  0.085719156 
  282000   -1793840.2    12080.899   -427.47471     77.00853    88.922483    81.249922    1603.8354  0.032345117  0.033443825  0.041705155    0.1074941  0.027337336  0.027534961  0.033803919  0.088676216 
  283000   -1793864.8    12061.255   -945.78292     77.00853    88.922483    81.249922    1601.2274  0.032463379  0.033509487  0.040950865   0.10692373  0.026950988  0.027024115  0.031899695  0.085874798 
  284000     -1793838    12043.861   -505.21118     77.00853    88.922483    81.249922    1598.9183  0.032880356  0.034317103  0.040879955   0.10807742   0.02682346   0.02771546   0.03225655  0.086795469 
  285000   -1793875.6      12105.7   -801.59682     77.00853    88.922483    81.249922    1607.1279  0.032656837  0.034426496  0.042146252   0.10922958  0.026472989  0.027741757   0.03335147  0.087566215 
  286000   -1793827.8    12091.528   -664.63962     77.00853    88.922483    81.249922    1605.2464  0.032832805  0.033871906  0.040863774   0.10756848  0.026795123  0.027489803  0.032788221  0.087073147 
  287000   -1793899.3    12068.403    -204.5354     77.00853    88.922483    81.249922    1602.1764  0.033652726  0.032536484  0.041229535   0.10741875  0.028248648  0.027276572  0.033616265  0.089141485 
  288000   -1793842.2    12029.463   -667.04815     77.00853    88.922483    81.249922    1597.0068  0.032792112   0.03343224  0.040661645     0.106886  0.027089364  0.027935181  0.032297957  0.087322502 
  289000   -1793867.7    12052.726   -550.28596     77.00853    88.922483    81.249922    1600.0952  0.032379835   0.03308838  0.041533586    0.1070018  0.026822194  0.027650496  0.032981219  0.087453908 
  290000   -1793856.1    12060.794   -623.92572     77.00853    88.922483    81.249922    1601.1662  0.032961244  0.033586427  0.039351458   0.10589913  0.026316334  0.027620245  0.031583794  0.085520373 
  291000   -1793898.3    12070.631   -1182.2876     77.00853    88.922483    81.249922    1602.4722   0.03256822  0.032880803  0.040476363   0.10592539  0.026728488  0.026515205  0.032194884  0.085438577 
  292000   -1793898.3    12154.929   -708.53764     77.00853    88.922483    81.249922    1613.6634  0.033909539  0.033861758  0.042397834   0.11016913  0.027692395  0.027632067  0.034127839    0.0894523 
  293000   -1793785.5    12087.158    -540.2147     77.00853    88.922483    81.249922    1604.6663  0.032994545  0.033455777  0.040129598   0.10657992  0.027191793  0.027388291  0.031945698  0.086525782 
  294000   -1793849.8    12089.791   -381.26161     77.00853    88.922483    81.249922    1605.0158  0.032177404  0.033477439  0.042214386   0.10786923   0.02649042  0.027063517  0.033900833   0.08745477 
  295000     -1793866    12054.541   -713.70187     77.00853    88.922483    81.249922    1600.3361  0.032035493  0.034516537  0.041054696   0.10760673  0.026398343  0.027788652  0.032678575   0.08686557 
  296000   -1793917.8    12132.776   -974.67151     77.00853    88.922483    81.249922    1610.7225  0.033167074  0.034923503  0.040854319    0.1089449  0.027451588  0.028244057  0.032747713  0.088443358 
  297000   -1793937.9    12044.154   -1182.8821     77.00853    88.922483    81.249922    1598.9571   0.03311926   0.03305839  0.042612113   0.10878976  0.027681253   0.02685257  0.033958286  0.088492109 
  298000   -1793863.8    12062.595   -545.70952     77.00853    88.922483    81.249922    1601.4054  0.033216927  0.033811699  0.040990533   0.10801916  0.027825341  0.027702564  0.033175997  0.088703903 
  299000   -1793911.8    12043.205   -957.36178     77.00853    88.922483    81.249922    1598.8311   0.03291227  0.034158317  0.041873267   0.10894385  0.027158221  0.028196891  0.033690572  0.089045683 
  300000   -1793811.3    12066.843   -715.40387     77.00853    88.922483    81.249922    1601.9693  0.032710975  0.033965235  0.040298238   0.10697445   0.02636349  0.027471334  0.032231463  0.086066287 
  301000   -1793873.5    12125.498    -733.5319     77.00853    88.922483    81.249922    1609.7563  0.034022322  0.033959853  0.041057165   0.10903934  0.027619104  0.027565466  0.032672843  0.087857413 
  302000   -1793943.7     12091.09   -562.01101     77.00853    88.922483    81.249922    1605.1883  0.033283685  0.034289988  0.040968501   0.10854217  0.026940305  0.027619505  0.032769478  0.087329288 
  303000   -1793891.2    12058.892   -555.58218     77.00853    88.922483    81.249922    1600.9137  0.033037427  0.034635828  0.041149596   0.10882285  0.027233852  0.027801493  0.032836113  0.087871459 
  304000   -1793858.1    12049.686   -933.82904     77.00853    88.922483    81.249922    1599.6916  0.033220214   0.03393083   0.04377417   0.11092521  0.026818116  0.027762911  0.034809575  0.089390602 
  305000   -1793929.9    12058.459   -956.06004     77.00853    88.922483    81.249922    1600.8563  0.032885906  0.033886229  0.040477051   0.10724919  0.026946722  0.027291892  0.032447762  0.086686376 
  306000   -1793842.5    12090.596   -994.78939     77.00853    88.922483    81.249922    1605.1227  0.033279255  0.033878939  0.041945864   0.10910406   0.02738403  0.027002678  0.032940597  0.087327306 
  307000   -1793823.9    12052.645   -371.73681     77.00853    88.922483    81.249922    1600.0845  0.033032571  0.033951979   0.04027753   0.10726208  0.027050637  0.028197244  0.031992037  0.087239918 
  308000     -1793864    12008.428   -831.31232     77.00853    88.922483    81.249922    1594.2143  0.032974071  0.033667501  0.040890309   0.10753188   0.02666336  0.027702364  0.031977981  0.086343705 
  309000   -1793869.8    12104.601   -958.97834     77.00853    88.922483    81.249922     1606.982  0.033055997  0.033545358  0.044051944    0.1106533  0.027130948  0.027652739    0.0347696  0.089553288 
  310000   -1793876.3    11992.031   -752.99168     77.00853    88.922483    81.249922    1592.0374  0.033241011  0.034771862  0.040418337   0.10843121  0.027567032  0.027941405  0.032446162  0.087954599 
  311000   -1793824.6    12049.321   -513.89198     77.00853    88.922483    81.249922    1599.6431  0.034883496  0.034115001  0.043076902    0.1120754  0.028878448   0.02760424  0.034219321  0.090702009 
  312000   -1793791.8    12019.266   -351.91479     77.00853    88.922483    81.249922     1595.653  0.032872728  0.034250298  0.039885864   0.10700889  0.026829502   0.02750227   0.03193596  0.086267732 
  313000   -1793889.6    12060.087    -1293.129     77.00853    88.922483    81.249922    1601.0724  0.033714652  0.034775298  0.040922257   0.10941221  0.027385576  0.028058771  0.032805551  0.088249899 
  314000     -1793883    12142.528   -53.021986     77.00853    88.922483    81.249922    1612.0171  0.032894116  0.034961936  0.042366081   0.11022213  0.026974495  0.028073137  0.034165144  0.089212775 
  315000   -1793867.5    12039.014   -797.30603     77.00853    88.922483    81.249922    1598.2748  0.033748581  0.033668061  0.041165052   0.10858169  0.027750508  0.027563881  0.032394832  0.087709221 
  316000   -1793937.4    12048.043   -936.90214     77.00853    88.922483    81.249922    1599.4734  0.033859714  0.034393107  0.043877334   0.11213015  0.028309149  0.028028031  0.035065517  0.091402697 
  317000   -1793932.4    12015.786   -681.95243     77.00853    88.922483    81.249922    1595.1912  0.032722988   0.03438666  0.039768971   0.10687862  0.026600374  0.028117886   0.03106502  0.085783279 
  318000   -1793926.6    11950.688   -1072.6881     77.00853    88.922483    81.249922    1586.5488   0.03264899  0.034231861  0.041253534   0.10813439  0.026986041  0.027868506  0.033042753  0.087897301 
  319000   -1793716.7    12026.772   -331.20408     77.00853    88.922483    81.249922    1596.6495  0.033765613  0.035257219  0.042247242   0.11127007  0.027220138  0.028783755  0.033349502  0.089353395 
  320000   -1793852.6     12004.54   -940.26152     77.00853    88.922483    81.249922    1593.6981  0.034550599    0.0336518  0.040768517   0.10897092  0.028328186  0.027266546  0.032534735  0.088129466 
  321000   -1793862.4     12066.84   -581.62603     77.00853    88.922483    81.249922    1601.9689  0.033598283  0.034493038  0.042347973   0.11043929   0.02779253  0.028162929   0.03414136  0.090096819 
  322000   -1793888.4    12028.398   -982.73747     77.00853    88.922483    81.249922    1596.8655  0.032000069    0.0340205  0.040076524   0.10609709  0.026359705  0.027799727  0.032037944  0.086197377 
  323000   -1793860.1    12094.979   -712.26121     77.00853    88.922483    81.249922    1605.7046  0.033247528  0.034138311  0.041170717   0.10855656  0.027338257  0.027844505  0.033569104  0.088751866 
  324000   -1793826.6    12007.921   -923.92996     77.00853    88.922483    81.249922     1594.147  0.032405294  0.033808975  0.039762385   0.10597665  0.027156394  0.027622193  0.031873367  0.086651954 
  325000   -1793927.7    12076.286   -690.58185     77.00853    88.922483    81.249922    1603.2229  0.033182771  0.033793791  0.040990748   0.10796731  0.028077128  0.027384577  0.032809057  0.088270761 
  326000   -1793772.8    11987.854   -86.545577     77.00853    88.922483    81.249922    1591.4828  0.032443286  0.034162467  0.042820958   0.10942671  0.027197882  0.028102163  0.034132802  0.089432848 
  327000   -1793808.4    12043.318   -467.62224     77.00853    88.922483    81.249922    1598.8462  0.033271418    0.0336788  0.040672418   0.10762264  0.027936681  0.027833299  0.032655109  0.088425089 
  328000   -1793759.8    12027.822   -0.2107326     77.00853    88.922483    81.249922     1596.789  0.034399573  0.034456191  0.042274614   0.11113038  0.028550205  0.028381475  0.033999773  0.090931454 
  329000   -1793916.3    12044.458   -1551.6618     77.00853    88.922483    81.249922    1598.9975  0.033775966    0.0342921  0.040691719   0.10875979  0.028002406    0.0285063   0.03207066  0.088579367 
  330000   -1793907.6    12007.365   -945.31732     77.00853    88.922483    81.249922    1594.0731  0.033025244  0.034611437  0.041480705   0.10911739  0.027802239  0.028099302  0.033217283  0.089118824 
  331000   -1793892.4    12045.181   -704.77407     77.00853    88.922483    81.249922    1599.0936  0.032831153  0.033995218  0.041716889   0.10854326  0.027171351  0.027895233  0.033351318  0.088417902 
  332000   -1793895.2    12076.549   -729.68007     77.00853    88.922483    81.249922    1603.2579  0.031969824  0.033930527  0.041364248    0.1072646  0.027432926  0.027973026  0.034019395  0.089425347 
  333000   -1793860.7    12030.852   -1084.0341     77.00853    88.922483    81.249922    1597.1912  0.033456671    0.0344923  0.042937783   0.11088675  0.028248516  0.028566432  0.034401589  0.091216537 
  334000   -1793821.6    12007.099   -315.77324     77.00853    88.922483    81.249922    1594.0378   0.03302315  0.034297769  0.040806207   0.10812713  0.026998788  0.028154098  0.032619912  0.087772798 
  335000   -1793900.6    12021.759    -861.2613     77.00853    88.922483    81.249922    1595.9841  0.032140699  0.034151334  0.042266298   0.10855833  0.026641138  0.027670563  0.033933945  0.088245645 
  336000     -1793884    12037.771   -883.99723     77.00853    88.922483    81.249922    1598.1098   0.03215196  0.034242766  0.041383496   0.10777822  0.026185027  0.028090704   0.03279922  0.087074951 
  337000   -1793909.8    12050.314   -1023.2649     77.00853    88.922483    81.249922     1599.775  0.033015245  0.034288291  0.041068581   0.10837212  0.027310917  0.027857128  0.032436614  0.087604659 
  338000     -1793822    12043.426   -511.99954     77.00853    88.922483    81.249922    1598.8605  0.033251177  0.033775195  0.042810279   0.10983665  0.028109704  0.027772911  0.034072406  0.089955021 
  339000   -1793827.7    11969.352   -938.15326     77.00853    88.922483    81.249922    1589.0267  0.032668506  0.033793069  0.041385975   0.10784755  0.027264029   0.02797301  0.033440514  0.088677552 
  340000     -1793879    12099.108   -486.95205     77.00853    88.922483    81.249922    1606.2527  0.032997092  0.034500358  0.040800501   0.10829795  0.027562507  0.028928882  0.033291473  0.089782862 
  341000     -1793932    12070.233   -648.95122     77.00853    88.922483    81.249922    1602.4193  0.032295258  0.033606871  0.040845416   0.10674754  0.026323806  0.027468012  0.032707963  0.086499781 
  342000   -1793896.5    12090.996   -984.47718     77.00853    88.922483    81.249922    1605.1758  0.033520691  0.033174494  0.041631906   0.10832709  0.027545404  0.027319707  0.033644599  0.088509709 
  343000   -1793843.6    12023.106   -1003.0757     77.00853    88.922483    81.249922    1596.1629  0.033305243  0.033901881  0.041133845   0.10834097  0.027715609   0.02781668  0.032647165  0.088179453 
  344000   -1793895.7    12071.097   -446.54536     77.00853    88.922483    81.249922    1602.5341  0.032581243  0.034474352   0.04134909   0.10840469  0.026977886  0.028423103  0.032601203  0.088002192 
  345000   -1793888.5    12088.954   -144.99655     77.00853    88.922483    81.249922    1604.9048  0.033084771  0.034524837  0.042848022   0.11045763  0.027280263  0.028059407  0.035463234  0.090802905 
  346000   -1793902.4    12068.871   -523.12854     77.00853    88.922483    81.249922    1602.2386  0.033322134    0.0352283  0.040302499   0.10885293  0.027370006  0.029202852  0.033103934  0.089676792 
  347000   -1793897.5     12016.64   -591.96322     77.00853    88.922483    81.249922    1595.3044  0.034280357  0.035089344  0.042013756   0.11138346  0.028521561  0.029087724  0.033550219  0.091159503 
  348000   -1793779.2    12035.792   -5.8416326     77.00853    88.922483    81.249922    1597.8471  0.032376834  0.033442999  0.041564844   0.10738468  0.026640296  0.026872309  0.033309614  0.086822219 
  349000   -1793842.4    12109.452   -657.28359     77.00853    88.922483    81.249922    1607.6259  0.033787349  0.034044297  0.041174969   0.10900661  0.027756213  0.028159447  0.032600171  0.088515831 
  350000     -1793881    11971.763   -1262.6242     77.00853    88.922483    81.249922    1589.3467  0.032890854  0.033529911   0.04245919   0.10887995  0.027051746  0.027969969  0.033438904  0.088460619 
  351000   -1793881.2    12090.118   -1002.7856     77.00853    88.922483    81.249922    1605.0592  0.033071923   0.03375679  0.040390369   0.10721908  0.027326785  0.027174258  0.031896914  0.086397956 
  352000   -1793863.7    12120.127   -191.82855     77.00853    88.922483    81.249922    1609.0431  0.033682463  0.034472762  0.041858625   0.11001385  0.027749234  0.028034993  0.033630969  0.089415196 
  353000   -1793889.9    12085.373   -1122.3382     77.00853    88.922483    81.249922    1604.4293  0.032561305  0.034617126   0.04091737    0.1080958  0.026689289  0.027557948  0.032659199  0.086906435 
  354000   -1793877.7    11969.584   -792.76737     77.00853    88.922483    81.249922    1589.0574  0.032531488  0.034138479   0.04183711   0.10850708  0.027000525  0.027711244  0.033752025  0.088463794 
  355000   -1793925.3    12042.674   -875.63159     77.00853    88.922483    81.249922    1598.7608  0.032976015   0.03442207  0.041974525   0.10937261  0.027259578  0.027576585  0.033711475  0.088547639 
  356000   -1793773.4    12087.925   -156.84189     77.00853    88.922483    81.249922    1604.7681  0.033730103  0.035651308  0.039977229   0.10935864  0.028015588  0.029344834  0.032829596  0.090190018 
  357000   -1793885.9    12040.491    -673.7599     77.00853    88.922483    81.249922    1598.4708  0.032819775  0.034872018  0.043206568   0.11089836  0.027095775   0.02753615  0.035010421  0.089642346 
  358000   -1793884.3     12034.68   -1032.9331     77.00853    88.922483    81.249922    1597.6994    0.0325501  0.034724971  0.039658404   0.10693347  0.026024853  0.027425999  0.031809588   0.08526044 
  359000   -1793818.7    12095.349   -495.12057     77.00853    88.922483    81.249922    1605.7537  0.033190447  0.035157494  0.041405958    0.1097539  0.027285411  0.028746525  0.032840537  0.088872474 
  360000   -1793847.4    12126.135   -441.52992     77.00853    88.922483    81.249922    1609.8409  0.033148094  0.034120026  0.041964868   0.10923299  0.027338461  0.027902014  0.034129755  0.089370229 
  361000   -1793852.8    11979.117   -670.55773     77.00853    88.922483    81.249922     1590.323   0.03357069  0.034972252  0.041066005   0.10960895  0.027557927  0.028125381    0.0332362  0.088919508 
  362000   -1793811.7    12003.504   -347.03334     77.00853    88.922483    81.249922    1593.5606  0.033851561  0.034870555  0.042720047   0.11144216  0.026911698  0.027842576  0.034427011  0.089181285 
  363000     -1793772    12042.327   -120.20747     77.00853    88.922483    81.249922    1598.7147  0.033427695  0.034771662  0.041189892   0.10938925  0.027207295  0.027960151  0.032964034  0.088131481 
  364000   -1793817.1    12096.453   -802.31979     77.00853    88.922483    81.249922    1605.9003  0.033915447  0.033674334   0.04145224   0.10904202  0.027814187   0.02734312  0.033593977  0.088751284 
  365000   -1793934.8    12024.895   -834.42217     77.00853    88.922483    81.249922    1596.4004  0.034551878  0.033525385  0.039987961   0.10806522  0.027652762  0.027672672  0.032709889  0.088035323 
  366000   -1793801.6    12012.066   -366.11546     77.00853    88.922483    81.249922    1594.6973  0.033668794  0.035033782  0.041420143   0.11012272    0.0277147  0.028815232  0.033138319  0.089668251 
  367000   -1793826.4    12038.864   -1164.6676     77.00853    88.922483    81.249922    1598.2549  0.033483807  0.034652693  0.041832434   0.10996894  0.027159024  0.028164974  0.034083109  0.089407107 
  368000     -1793879    12078.468   -543.11244     77.00853    88.922483    81.249922    1603.5127  0.032795801  0.034591673  0.040050314   0.10743779   0.02707027  0.028160108  0.031992637  0.087223015 
  369000   -1793873.9    12132.803   -407.23807     77.00853    88.922483    81.249922    1610.7261  0.033877614  0.034823318   0.04317264   0.11187357  0.027525986  0.027429656  0.034427009  0.089382651 
  370000   -1793913.4    12002.842   -944.79724     77.00853    88.922483    81.249922    1593.4727  0.033838977  0.034870188   0.04168839   0.11039755  0.027195134  0.028026985  0.032995729  0.088217847 
  371000   -1793855.6    12029.411   -650.74955     77.00853    88.922483    81.249922    1596.9999  0.033980386  0.034918807  0.040087674   0.10898687  0.026844018  0.028240524  0.031661206  0.086745748 
  372000     -1793789    12042.748    -126.5528     77.00853    88.922483    81.249922    1598.7705   0.03432388  0.034519816  0.043237377   0.11208107   0.02761395  0.028064377  0.034070264  0.089748591 
  373000     -1793864    12054.444   -748.27616     77.00853    88.922483    81.249922    1600.3233  0.033965138  0.034811966  0.039993584   0.10877069  0.027357957   0.02769964  0.031682964  0.086740561 
  374000   -1793836.3    12040.328   -582.37656     77.00853    88.922483    81.249922    1598.4493  0.034694973  0.033580125  0.042144453   0.11041955  0.028047015  0.027382252  0.033123019  0.088552285 
  375000   -1793831.8    12104.397   -631.73353     77.00853    88.922483    81.249922    1606.9549  0.033648208  0.034054084   0.04048927   0.10819156  0.027525212  0.028041218  0.032203894  0.087770324 
  376000   -1793873.9    12100.351   -759.16168     77.00853    88.922483    81.249922    1606.4178  0.033599794  0.034294741  0.041802931   0.10969747  0.027492833   0.02840113  0.032968524  0.088862487 
  377000   -1793885.1    12039.699   -908.24085     77.00853    88.922483    81.249922    1598.3658  0.033695881  0.034293468  0.041749522   0.10973887  0.027782559  0.028257887   0.03270839  0.088748836 
  378000   -1793869.8     12032.12   -386.48042     77.00853    88.922483    81.249922    1597.3595  0.032912779  0.034326433  0.040368025   0.10760724  0.026592897   0.02790385  0.032504602  0.087001349 
  379000   -1793837.7    12071.813    -854.4999     77.00853    88.922483    81.249922    1602.6292  0.032904932  0.034695922  0.042076926   0.10967778  0.026990746   0.02836386  0.033450171  0.088804777 
  380000   -1793907.5    12034.639   -1099.0728     77.00853    88.922483    81.249922     1597.694  0.033406059  0.034621922  0.041026644   0.10905463  0.026983533  0.027936818  0.031991594  0.086911945 
  381000     -1793869     11999.19    -1284.754     77.00853    88.922483    81.249922    1592.9878  0.032630959  0.034067652  0.041126961   0.10782557  0.026379496    0.0276771  0.032949837  0.087006433 
  382000     -1793806    12093.117   -600.29988     77.00853    88.922483    81.249922    1605.4574  0.034333395  0.034933487  0.043404837   0.11267172  0.027335494  0.027835156  0.034634042  0.089804692 
  383000   -1793916.6    12114.751   -770.71463     77.00853    88.922483    81.249922    1608.3295  0.033180792  0.034696989  0.040400441   0.10827822  0.026768022  0.028502385  0.032652578  0.087922986 
  384000   -1793906.6    12073.597   -713.88198     77.00853    88.922483    81.249922    1602.8659  0.033639747  0.033908387  0.043080048   0.11062818  0.026691475   0.02820458  0.034340204  0.089236259 
  385000   -1793961.8    12081.947    -877.2175     77.00853    88.922483    81.249922    1603.9746  0.033578227  0.033135028  0.040465266   0.10717852  0.026849671  0.027016494  0.032620959  0.086487125 
  386000   -1793869.2    12006.552   -755.89118     77.00853    88.922483    81.249922    1593.9652  0.033511713  0.033420783  0.041659909    0.1085924  0.027009132  0.027864003  0.033037187  0.087910322 
  387000   -1793904.7    12016.956   -539.07451     77.00853    88.922483    81.249922    1595.3464  0.033196478   0.03373737  0.041876816   0.10881066  0.026777498  0.027586329  0.033939993   0.08830382 
  388000   -1793891.3    11983.017   -738.51886     77.00853    88.922483    81.249922    1590.8408  0.033442519  0.033587282  0.040876496    0.1079063  0.026965951  0.027981981  0.032077455  0.087025387 
  389000   -1793765.7     12039.72   -187.66825     77.00853    88.922483    81.249922    1598.3685  0.034138213  0.034167791  0.043455299    0.1117613  0.027827319   0.02758603  0.034398106  0.089811454 
  390000   -1793810.2    11989.372   -616.79339     77.00853    88.922483    81.249922    1591.6844   0.03285882  0.034236355  0.040460061   0.10755524   0.02720468  0.028457231  0.032489266  0.088151177 
  391000     -1793958    12079.807   -1051.2618     77.00853    88.922483    81.249922    1603.6903  0.033550573  0.033265272  0.042385766   0.10920161  0.027696022  0.027568531  0.033465783  0.088730336 
  392000   -1793958.4     12112.85   -884.51338     77.00853    88.922483    81.249922    1608.0771  0.034500747  0.033419102  0.041352007   0.10927186  0.027246981  0.026882954  0.032795515   0.08692545 
  393000   -1793923.5    12093.319   -668.25641     77.00853    88.922483    81.249922    1605.4842  0.034577811  0.034096585  0.041014321   0.10968872  0.027660894  0.027758535  0.032426233  0.087845662 
  394000   -1793848.3    12041.097   -800.68521     77.00853    88.922483    81.249922    1598.5513  0.033549405  0.033844234   0.04191919   0.10931283  0.026901011  0.027534411  0.033724485  0.088159906 
  395000   -1793854.7    12071.594   -935.37851     77.00853    88.922483    81.249922    1602.6001   0.03313493  0.033192418  0.040527228   0.10685458  0.026982395  0.026994382  0.032068736  0.086045513 
  396000   -1793847.5    11986.532   -868.31487     77.00853    88.922483    81.249922    1591.3074  0.033923723   0.03430948  0.042595419   0.11082862  0.027583958  0.028436736  0.034336618  0.090357312 
  397000   -1793830.6    12083.592   -206.54772     77.00853    88.922483    81.249922    1604.1929  0.034351264  0.034016225   0.04085283   0.10922032  0.027632792   0.02778191  0.032468026  0.087882728 
  398000   -1793829.1    12046.636   -343.86386     77.00853    88.922483    81.249922    1599.2867  0.034556194  0.032845299  0.042109356   0.10951085  0.027602712  0.027163413  0.033563181  0.088329306 
  399000   -1793833.8    12020.789   -943.22251     77.00853    88.922483    81.249922    1595.8553  0.033288854  0.033894099  0.041871008   0.10905396  0.026931349  0.027538628   0.03325126  0.087721238 
  400000   -1793888.6    12031.861   -810.68311     77.00853    88.922483    81.249922    1597.3252  0.034403559  0.033642656  0.039980921   0.10802714   0.02702711  0.027872738  0.031418722  0.086318571 
  401000   -1793848.2    12058.644   -890.55548     77.00853    88.922483    81.249922    1600.8809  0.034339142  0.034051324   0.04231564    0.1107061  0.027330478  0.027987223  0.033209545  0.088527247 
  402000   -1793853.1    11989.454   -301.76637     77.00853    88.922483    81.249922    1591.6953  0.034722258  0.033756844  0.040587438   0.10906654  0.027035676  0.027863365    0.0319426  0.086841642 
  403000   -1793907.7    12103.579   -436.80289     77.00853    88.922483    81.249922    1606.8463  0.033956225  0.033693551  0.042389997   0.11003977  0.026404329  0.027980253  0.033510726  0.087895308 
  404000   -1793874.7    12053.236    -1219.619     77.00853    88.922483    81.249922    1600.1629  0.033765764  0.033083907  0.040569391   0.10741906  0.026435659  0.027608181  0.031821933  0.085865773 
  405000   -1793889.8    11999.971   -1219.4465     77.00853    88.922483    81.249922    1593.0915  0.035157723  0.032519573  0.040495236   0.10817253  0.027981735  0.026845156  0.031875644  0.086702535 
  406000   -1793889.5    12046.347    -981.9185     77.00853    88.922483    81.249922    1599.2483  0.034243946  0.033889964  0.042284481   0.11041839   0.02682082  0.027551783  0.033527408  0.087900011 
  407000   -1793888.1    11989.514   -1482.7606     77.00853    88.922483    81.249922    1591.7033  0.033225382  0.033732252  0.040455534   0.10741317  0.027132129  0.027706661  0.032448587  0.087287377 
  408000   -1793834.4    12115.187   -374.07983     77.00853    88.922483    81.249922    1608.3873  0.034386777  0.034631118   0.04204176   0.11105965  0.027561414  0.028367757  0.033157897  0.089087068 
  409000   -1793845.7     12030.93    -120.1194     77.00853    88.922483    81.249922    1597.2016  0.033796697  0.034012191  0.041536602   0.10934549  0.026972086  0.027934223  0.033177829  0.088084138 
  410000   -1793762.6    12042.543   -218.95561     77.00853    88.922483    81.249922    1598.7433  0.034171396  0.034556984  0.040788227   0.10951661  0.027631802  0.027745199  0.032570195  0.087947196 
  411000   -1793958.3    12028.481   -1370.9592     77.00853    88.922483    81.249922    1596.8764  0.035053362  0.034379523  0.041657841   0.11109073  0.027395261  0.027437117  0.032952429  0.087784807 
  412000   -1793886.8    11981.597   -613.45048     77.00853    88.922483    81.249922    1590.6522  0.034127758  0.035314927  0.041235096   0.11067778  0.028009921  0.028287979  0.032609948  0.088907847 
  413000   -1793791.6    12058.704   -553.37016     77.00853    88.922483    81.249922    1600.8889   0.03368764  0.034707526  0.041628741   0.11002391  0.026380808  0.027901158  0.032979469  0.087261435 
  414000   -1793896.2    11972.766   -1201.9582     77.00853    88.922483    81.249922    1589.4799  0.033983312  0.034336723   0.04084943   0.10916947  0.027718829  0.027677968  0.032283828  0.087680625 
  415000   -1793847.9    12071.801   -610.89505     77.00853    88.922483    81.249922    1602.6275  0.034124156  0.034397922  0.041403711   0.10992579  0.027534412  0.027412118  0.032843724  0.087790253 
  416000     -1793846     12091.83     -858.868     77.00853    88.922483    81.249922    1605.2865  0.033178265  0.034646111  0.042319597   0.11014397  0.026768084  0.028407068  0.033576912  0.088752065 
  417000   -1793837.4    12042.017   -385.04216     77.00853    88.922483    81.249922    1598.6735  0.033802338    0.0344268  0.040898688   0.10912783  0.027276549  0.027268247  0.031993404    0.0865382 
  418000   -1793760.9     11968.59   -768.32791     77.00853    88.922483    81.249922    1588.9255  0.033697907  0.033865897  0.042173202   0.10973701  0.027155943  0.027993072  0.033671729  0.088820743 
  419000     -1793840    11998.888   -1002.7984     77.00853    88.922483    81.249922    1592.9478  0.034212185   0.03450669  0.040948662   0.10966754  0.027590603  0.027595023  0.031651245  0.086836871 
  420000   -1793895.5    12008.922   -856.47791     77.00853    88.922483    81.249922    1594.2798  0.033504454   0.03352209  0.041126123   0.10815267   0.02722704  0.027327402  0.032612964  0.087167406 
  421000   -1793828.1    12065.056   -78.302765     77.00853    88.922483    81.249922    1601.7321  0.033531078  0.033654931  0.041286937   0.10847295  0.027163924  0.027786006  0.032275133  0.087225063 
  422000   -1793815.8    12030.619    37.866873     77.00853    88.922483    81.249922    1597.1603  0.033335263  0.034453194  0.041089605   0.10887806  0.027193966   0.02752892   0.03189247  0.086615355 
  423000     -1793858    12042.704   -992.16783     77.00853    88.922483    81.249922    1598.7647  0.033493254  0.034190093  0.042163684   0.10984703  0.027237051  0.028611475  0.033134997  0.088983524 
  424000   -1793910.8    12068.403    -1205.776     77.00853    88.922483    81.249922    1602.1764  0.033567636   0.03347459  0.041214075    0.1082563   0.02741303   0.02743232  0.032253273  0.087098623 
  425000   -1793882.6    12085.809   -758.62856     77.00853    88.922483    81.249922    1604.4872  0.033893618  0.034569116  0.043039467    0.1115022  0.026880794  0.027958132  0.033792729  0.088631656 
  426000   -1793916.7    12029.162   -782.78369     77.00853    88.922483    81.249922    1596.9669  0.033567859  0.033658418  0.040300358   0.10752664  0.026913799  0.026942625  0.031542792  0.085399216 
  427000     -1793845    12066.463   -871.12823     77.00853    88.922483    81.249922    1601.9188  0.033794208  0.034832234  0.040931168   0.10955761  0.026909365  0.027534027  0.032292878  0.086736271 
  428000   -1793823.7    12043.513   -960.34712     77.00853    88.922483    81.249922     1598.872  0.033447175  0.034409583  0.042243046    0.1100998  0.026451798  0.027642175  0.033364184  0.087458158 
  429000   -1793872.8    12085.329   -654.68202     77.00853    88.922483    81.249922    1604.4235   0.03482847  0.035024521   0.04014005   0.10999304  0.027823892  0.028280751  0.031641665  0.087746308 
  430000   -1793914.4    12056.453   -547.41655     77.00853    88.922483    81.249922    1600.5899  0.034041036  0.034570752  0.041546197   0.11015799   0.02753566  0.027578522  0.032604549  0.087718731 
  431000   -1793848.2     12018.48   -290.12163     77.00853    88.922483    81.249922    1595.5488   0.03454083  0.034892121  0.040675197   0.11010815  0.026940143  0.027980203  0.032860105  0.087780451 
  432000   -1793805.9    12029.846   -514.83606     77.00853    88.922483    81.249922    1597.0577  0.034056921  0.034185546  0.042745128   0.11098759  0.027528549  0.027401052  0.033500393  0.088429994 
  433000   -1793897.2    12036.413   -852.17777     77.00853    88.922483    81.249922    1597.9295  0.034800078  0.034442029  0.041268806   0.11051091  0.027533277  0.027035812  0.032469415  0.087038505 
  434000   -1793827.5    12093.107   -571.27255     77.00853    88.922483    81.249922    1605.4561  0.034037352   0.03554066  0.041516476   0.11109449  0.027248541  0.028190668  0.032882041   0.08832125 
  435000   -1793803.8    12079.483   -466.13158     77.00853    88.922483    81.249922    1603.6473  0.033449884  0.034779929  0.042234215   0.11046403  0.026723216  0.027773562  0.033478943  0.087975721 
  436000     -1793850    12104.611   -704.22985     77.00853    88.922483    81.249922    1606.9833  0.033904823  0.035175726   0.04050737   0.10958792  0.027105224  0.028235999  0.032470597  0.087811819 
  437000   -1793864.9    12050.547   -460.62399     77.00853    88.922483    81.249922    1599.8059  0.034433989  0.034909902  0.041243689   0.11058758  0.027742197  0.028081125   0.03284644  0.088669762 
  438000   -1793857.4     12026.68   -869.11641     77.00853    88.922483    81.249922    1596.6373  0.033865838  0.034879096  0.041952914   0.11069785  0.027388832  0.028011224  0.033393178  0.088793234 
  439000   -1793900.5    12022.994   -670.55363     77.00853    88.922483    81.249922     1596.148  0.034286256  0.035478829  0.041174307   0.11093939  0.027792906  0.028138358  0.032433339  0.088364603 
  440000   -1793914.4    12063.416   -773.37713     77.00853    88.922483    81.249922    1601.5144  0.033589026   0.03496632  0.042074776   0.11063012  0.027581192  0.027311011  0.033965252  0.088857455 
  441000   -1793821.7    12076.869    -230.2034     77.00853    88.922483    81.249922    1603.3003  0.033515104  0.034822246  0.041289403   0.10962675  0.027231858  0.027923639  0.032497876  0.087653373 
  442000   -1793795.6    12111.092    37.769716     77.00853    88.922483    81.249922    1607.8437  0.033902656  0.034929683  0.042046203   0.11087854  0.027287883  0.027512187  0.033107079  0.087907148 
  443000   -1793909.4    11969.279   -652.69397     77.00853    88.922483    81.249922     1589.017  0.033931072  0.034592236  0.040639689     0.109163  0.027304163  0.026780911  0.032272581  0.086357655 
  444000     -1793782    12019.334   -543.65436     77.00853    88.922483    81.249922    1595.6621   0.03333673  0.034541652  0.041522349   0.10940073  0.027374171  0.027225501  0.032809087  0.087408759 
  445000   -1793841.5    12065.515   -333.49876     77.00853    88.922483    81.249922     1601.793  0.035235613  0.034807308   0.04173562   0.11177854  0.028205986  0.027654187  0.033192354  0.089052527 
  446000   -1793868.7    12021.368   -673.21532     77.00853    88.922483    81.249922    1595.9322  0.033585454   0.03510658   0.04071729   0.10940932  0.026960636   0.02773674  0.032627292  0.087324668 
  447000   -1793848.2    12066.669   -398.64789     77.00853    88.922483    81.249922    1601.9463   0.03295404  0.034738327  0.042191025   0.10988339  0.026982261  0.027134378  0.033698631   0.08781527 
  448000   -1793849.7    12063.524   -189.40575     77.00853    88.922483    81.249922    1601.5287   0.03337183  0.035315228  0.040986149   0.10967321  0.027412343  0.027653383  0.032569997  0.087635723 
  449000   -1793830.4     12066.16   -663.30038     77.00853    88.922483    81.249922    1601.8787  0.035624212  0.034347689  0.041235617   0.11120752  0.028439997  0.026698021  0.032687648  0.087825666 
  450000   -1793773.7     12130.38    78.095464     77.00853    88.922483    81.249922    1610.4044  0.034200814  0.034336217  0.042134375   0.11067141  0.027781428  0.026779096  0.033348031  0.087908556 
  451000   -1793894.2    12018.324   -1325.2595     77.00853    88.922483    81.249922     1595.528  0.033413543  0.034221921  0.040631234    0.1082667  0.027389897  0.027094507  0.032294846   0.08677925 
  452000   -1793898.3    12083.795   -832.15158     77.00853    88.922483    81.249922    1604.2198  0.032582296  0.035758504  0.041766908   0.11010771  0.026991741  0.028378891  0.033449156  0.088819787 
  453000     -1793847    12056.746   -776.29698     77.00853    88.922483    81.249922    1600.6288  0.032986177  0.035121358  0.040885758   0.10899329  0.026959262  0.027680469  0.032024615  0.086664346 
  454000   -1793878.3    12082.788   -484.41742     77.00853    88.922483    81.249922    1604.0861  0.033512135  0.035202487  0.042226019   0.11094064  0.027660276   0.02819209  0.034053415  0.089905781 
  455000   -1793904.4     12069.36   -904.12323     77.00853    88.922483    81.249922    1602.3035  0.033630823  0.035096284  0.040002415   0.10872952  0.027146919  0.027810765  0.031009311  0.085966996 
  456000   -1793917.5    11974.368   -1318.1376     77.00853    88.922483    81.249922    1589.6925  0.032652513  0.034124615  0.042854739   0.10963187  0.026016927   0.02720488  0.034007278  0.087229086 
  457000   -1793989.4    12055.362   -1327.1409     77.00853    88.922483    81.249922    1600.4452  0.033268581   0.03439158  0.041503019   0.10916318  0.027309568  0.027591419   0.03266274  0.087563728 
  458000   -1793870.3    12128.405   -614.44034     77.00853    88.922483    81.249922    1610.1421  0.033660425  0.034979287   0.04071379    0.1093535  0.027716381  0.027323552  0.032181141  0.087221074 
  459000   -1793903.7    12042.411   -1203.7648     77.00853    88.922483    81.249922    1598.7258  0.033246058  0.035646676  0.042940612   0.11183335  0.027195687  0.027932675  0.034378853  0.089507215 
  460000     -1793880    11998.732   -957.74706     77.00853    88.922483    81.249922    1592.9271  0.034044224  0.034792453  0.042065592   0.11090227  0.027084956  0.026967261  0.032395692   0.08644791 
  461000   -1793865.8    11995.454   -788.21206     77.00853    88.922483    81.249922    1592.4919  0.033708878  0.034740573  0.041415032   0.10986448   0.02737012  0.027432546  0.032797507  0.087600172 
  462000   -1793791.7    12010.002   -420.82466     77.00853    88.922483    81.249922    1594.4232  0.033633491  0.034701048  0.041717897   0.11005244   0.02699499  0.028005524  0.033318827  0.088319342 
  463000   -1793934.5    12102.227   -850.51291     77.00853    88.922483    81.249922    1606.6668   0.03375956   0.03436033  0.040536455   0.10865634  0.027502732  0.027577476  0.031890918  0.086971127 
  464000   -1793853.3    11983.597   -1135.8986     77.00853    88.922483    81.249922    1590.9177  0.033691832    0.0346732  0.041439355   0.10980439   0.02764286  0.027584749  0.033513274  0.088740884 
  465000   -1793885.5    12175.443   -617.59171     77.00853    88.922483    81.249922    1616.3869  0.032761722  0.034787693  0.040981296   0.10853071  0.026068324  0.027202051  0.032265384  0.085535759 
  466000   -1793953.4    11980.822   -1310.9091     77.00853    88.922483    81.249922    1590.5494  0.033338238  0.033923862  0.042417603    0.1096797  0.026759919  0.026541619  0.033679696  0.086981234 
  467000     -1793799    12091.266   -590.69246     77.00853    88.922483    81.249922    1605.2117  0.034202145  0.035141743   0.04057923   0.10992312   0.02799714   0.02735222  0.031534816  0.086884176 
  468000   -1793866.9    12013.796    -1080.075     77.00853    88.922483    81.249922    1594.9269  0.033934424  0.034914569  0.041420312   0.11026931  0.027292049  0.027488355  0.032489835  0.087270239 
  469000   -1793885.9    12091.144   -767.88781     77.00853    88.922483    81.249922    1605.1955  0.033713725    0.0355654  0.041877363   0.11115649  0.026773619  0.027607429  0.033528349  0.087909397 
  470000   -1793872.7    12090.538    -618.7371     77.00853    88.922483    81.249922     1605.115  0.033196862  0.034978202  0.040689604   0.10886467  0.026547748  0.027454998  0.031782722  0.085785468 
  471000   -1793824.4    12049.454   -780.05771     77.00853    88.922483    81.249922    1599.6607  0.034476405  0.034618452  0.044346492   0.11344135  0.027490662  0.027266577  0.035133403  0.089890642 
  472000   -1793868.5    12025.525   -759.81752     77.00853    88.922483    81.249922    1596.4841  0.034576472  0.035270823  0.040857376   0.11070467  0.026746954  0.027533456  0.032520097  0.086800506 
  473000   -1793884.7    12039.874   -1100.8656     77.00853    88.922483    81.249922    1598.3889  0.034446828  0.035193621   0.04170488   0.11134533  0.027679819   0.02729763  0.033537504  0.088514954 
  474000   -1793751.1    12055.913    66.068403     77.00853    88.922483    81.249922    1600.5183  0.034221323  0.034553594  0.041050722   0.10982564  0.027055344  0.027111257  0.032520217  0.086686818 
  475000   -1793852.2    11988.944   -666.51233     77.00853    88.922483    81.249922    1591.6276  0.034795409  0.034735078  0.041709417    0.1112399   0.02719234  0.028522114  0.032512895  0.088227349 
  476000   -1793890.4     11996.77   -949.32999     77.00853    88.922483    81.249922    1592.6665  0.034271286  0.034954959  0.042034622   0.11126087   0.02722467  0.027999679  0.033479923  0.088704272 
  477000     -1793912    12081.166   -936.19927     77.00853    88.922483    81.249922    1603.8708  0.034406245  0.033531641  0.041613096   0.10955098  0.027461987  0.027017847  0.033015295  0.087495129 
  478000   -1793887.7    12069.446   -983.59023     77.00853    88.922483    81.249922    1602.3149  0.033967581  0.034967548  0.043291078   0.11222621  0.026953157  0.027929501  0.034329892   0.08921255 
  479000   -1793813.6    12099.402   -308.76626     77.00853    88.922483    81.249922    1606.2918  0.033100451  0.033840401  0.040428807   0.10736966  0.026372942  0.027424846  0.032100675  0.085898464 
  480000   -1793828.4    12049.669    315.46322     77.00853    88.922483    81.249922    1599.6893  0.034036591  0.034963001  0.041560911    0.1105605   0.02761648  0.028196206   0.03350901  0.089321696 
  481000     -1793881    12033.384    -1013.619     77.00853    88.922483    81.249922    1597.5274  0.033926693   0.03475784  0.042009463     0.110694  0.027211164  0.028008115  0.033209764  0.088429043 
  482000   -1793859.1    12061.328   -486.16532     77.00853    88.922483    81.249922    1601.2372  0.034077228  0.035227389   0.04158281   0.11088743  0.027292485  0.028621551  0.032329614   0.08824365 
  483000     -1793830    12117.337   -425.06209     77.00853    88.922483    81.249922    1608.6728  0.033617685  0.034348049  0.043010442   0.11097618  0.026671988   0.02772213  0.034635472   0.08902959 
  484000   -1793824.9    12024.874   -780.26733     77.00853    88.922483    81.249922    1596.3976  0.033504487    0.0343805  0.041266579   0.10915157  0.026399159  0.027144844  0.031962942  0.085506945 
  485000   -1793876.4     12074.58   -446.29115     77.00853    88.922483    81.249922    1602.9964  0.034682331  0.035061317  0.042541457   0.11228511  0.027815579  0.027783364  0.034426589  0.090025532 
  486000   -1793833.7    12052.208   -567.86013     77.00853    88.922483    81.249922    1600.0264   0.03383827  0.035351467  0.041624942   0.11081468  0.027162069  0.028153521  0.033143409  0.088458998 
  487000   -1793902.5      12043.2   -803.33731     77.00853    88.922483    81.249922    1598.8305  0.034098732   0.03584825  0.041017932   0.11096491  0.027007412   0.02863121  0.033027975  0.088666596 
  488000     -1793752    12057.784   -218.18438     77.00853    88.922483    81.249922    1600.7667  0.034332233  0.034848897  0.042425607   0.11160674   0.02754242  0.027391779   0.03468619  0.089620388 
  489000   -1793854.6     11954.23   -437.68617     77.00853    88.922483    81.249922    1587.0191  0.033647427  0.033667961   0.04102636   0.10834175  0.026801118  0.026552179  0.032652189  0.086005486 
  490000   -1793894.4    12058.988   -925.35302     77.00853    88.922483    81.249922    1600.9265  0.033447719   0.03469497  0.042633365   0.11077605  0.026870583  0.028050582   0.03356869  0.088489855 
  491000   -1793900.8    12051.066   -822.60524     77.00853    88.922483    81.249922    1599.8747  0.033907887  0.035043383  0.041090897   0.11004217  0.026625834   0.02776209  0.032918756   0.08730668 
  492000     -1793838    12098.434   -447.70678     77.00853    88.922483    81.249922    1606.1633  0.035290464  0.035239688   0.04142063   0.11195078  0.027828384  0.027938866  0.033189304  0.088956554 
  493000   -1793837.9    11982.926   -1067.8816     77.00853    88.922483    81.249922    1590.8286  0.034447901  0.034938218  0.042687251   0.11207337  0.027372282  0.028182127  0.033639718  0.089194128 
  494000   -1793862.6    12020.415   -613.53623     77.00853    88.922483    81.249922    1595.8057  0.034090335  0.035196791  0.040932091   0.11021922   0.02725635  0.027651939  0.032465688  0.087373977 
  495000   -1793853.6    12025.723   -768.85429     77.00853    88.922483    81.249922    1596.5103  0.035387283  0.034759884  0.042148682   0.11229585    0.0279292  0.027615292   0.03339167  0.088936162 
  496000   -1793846.5    12016.448   -891.31011     77.00853    88.922483    81.249922    1595.2789  0.034239309  0.034852522  0.041690767    0.1107826  0.027100952  0.027386637  0.032152786  0.086640375 
  497000   -1793930.5    12047.658   -609.42878     77.00853    88.922483    81.249922    1599.4224   0.03440999  0.034212435  0.041253171    0.1098756  0.027453534  0.027190421  0.032452907  0.087096862 
  498000   -1793919.7    12002.273   -645.48547     77.00853    88.922483    81.249922    1593.3971  0.034152745  0.033496252  0.042419527   0.11006852  0.027124547  0.026510426  0.032996191  0.086631164 
  499000   -1793786.1    12075.198    -142.5579     77.00853    88.922483    81.249922    1603.0786  0.034007727  0.034313364  0.042174021   0.11049511  0.026934177  0.027510277  0.033057673  0.087502127 
  500000   -1793897.2    12063.472   -1080.3125     77.00853    88.922483    81.249922    1601.5218   0.03311485  0.035193446  0.041567203    0.1098755  0.026702547  0.027598342  0.032894119  0.087195007 
  501000   -1793831.2    12111.448   -732.07514     77.00853    88.922483    81.249922     1607.891  0.033818864  0.034487006  0.043058633    0.1113645  0.026929086   0.02687262  0.034247331  0.088049036 
  502000     -1793922    12073.377   -710.25971     77.00853    88.922483    81.249922    1602.8368   0.03317872  0.034950096  0.040733946   0.10886276  0.026924963  0.027564714  0.032614667  0.087104344 
  503000   -1793878.7    12101.294   -908.56463     77.00853    88.922483    81.249922     1606.543  0.033398208  0.035729773  0.042860726   0.11198871  0.026786636   0.02791803  0.033638789  0.088343455 
  504000   -1793891.4    12009.542   -992.80395     77.00853    88.922483    81.249922    1594.3622  0.033581909  0.035327811  0.041651171   0.11056089  0.027197763  0.027638517  0.032397112  0.087233392 
  505000   -1793822.4    12064.951   -973.09868     77.00853    88.922483    81.249922    1601.7181  0.033708594  0.034375885  0.041916186   0.11000066  0.027487231  0.026936464  0.032550557  0.086974252 
  506000   -1793853.8    12110.201   -861.51789     77.00853    88.922483    81.249922    1607.7254  0.033868276  0.035468476  0.042214238   0.11155099  0.027167182  0.027873989  0.033232032  0.088273203 
  507000     -1793809     11987.03   -810.66662     77.00853    88.922483    81.249922    1591.3736  0.033411203  0.035599766  0.040780644   0.10979161  0.026907551  0.028097203  0.032475328  0.087480082 
  508000   -1793851.8    12136.731   -572.96566     77.00853    88.922483    81.249922    1611.2476  0.033648289   0.03473861  0.041446884   0.10983378  0.026826716  0.027531932  0.033480516  0.087839164 
  509000   -1793874.9     12024.47   -939.57592     77.00853    88.922483    81.249922     1596.344  0.033214529  0.034126279  0.041850992    0.1091918  0.027423594  0.027041796   0.03250408   0.08696947 
  510000   -1793888.6    12072.067   -960.36776     77.00853    88.922483    81.249922    1602.6628  0.033314438  0.035493639  0.041278312   0.11008639  0.027128155  0.028531922   0.03251859  0.088178667 
  511000   -1793873.6    12110.624   -606.16986     77.00853    88.922483    81.249922    1607.7816  0.032821906  0.034504041  0.041642838   0.10896879  0.026542176  0.027401222  0.032690606  0.086634005 
  512000   -1793806.5    11991.234   -490.33053     77.00853    88.922483    81.249922    1591.9316  0.033432595    0.0342313  0.041734615   0.10939851  0.026925019  0.026857402  0.033397354  0.087179775 
  513000   -1793802.1    12091.968    -248.6687     77.00853    88.922483    81.249922    1605.3049  0.034124009  0.035370042  0.041644808   0.11113886  0.027533313  0.027481995  0.032836797  0.087852105 
  514000   -1793873.7    12074.448   -632.50312     77.00853    88.922483    81.249922    1602.9789  0.034158867   0.03466494  0.041117774   0.10994158  0.027454933  0.027655488  0.032206168  0.087316589 
  515000   -1793873.9    12045.143    -1080.495     77.00853    88.922483    81.249922    1599.0885  0.033095292  0.034530289  0.042208764   0.10983435  0.027453054   0.02731832  0.033927977  0.088699351 
  516000     -1793844    12022.869   -712.39284     77.00853    88.922483    81.249922    1596.1315  0.032677537  0.034304049  0.041200677   0.10818226  0.026225935  0.027886678  0.032019114  0.086131727 
  517000   -1793931.5    12037.198   -831.27913     77.00853    88.922483    81.249922    1598.0337     0.033339  0.034847089  0.042751703   0.11093779  0.027468494  0.027856249  0.033698432  0.089023175 
  518000     -1793806    12007.242   -340.22592     77.00853    88.922483    81.249922    1594.0568  0.034070356  0.033978718   0.04126156   0.10931063  0.027032569   0.02701686  0.033126605  0.087176034 
  519000   -1793848.4    12093.193   -860.43554     77.00853    88.922483    81.249922    1605.4675  0.033809466  0.033740217  0.042405054   0.10995474  0.026956238   0.02689693  0.033694913  0.087548081 
  520000   -1793793.4    12032.455   -650.71314     77.00853    88.922483    81.249922     1597.404  0.033340237  0.034090479  0.041844954   0.10927567  0.026435757  0.027832661  0.032970567  0.087238985 
  521000   -1793807.9      12062.1   -569.40747     77.00853    88.922483    81.249922    1601.3397  0.033100057  0.035168375  0.040804782   0.10907321  0.026402096  0.027234783  0.032261864  0.085898744 
  522000   -1793881.2    12044.777   -1133.3612     77.00853    88.922483    81.249922    1599.0399  0.033484615  0.034290236  0.043215282   0.11099013  0.027159422  0.027438429   0.03388825  0.088486102 
  523000     -1793876    12067.217   -984.40582     77.00853    88.922483    81.249922     1602.019  0.033412592  0.035541327  0.040740627   0.10969455   0.02704492  0.027543449  0.032173017  0.086761386 
  524000   -1793889.4    12084.465   -1212.5794     77.00853    88.922483    81.249922    1604.3087  0.032605463  0.035143781  0.041699811   0.10944905  0.026503232  0.027519766  0.033365764  0.087388762 
  525000   -1793907.8    12081.535    -886.9923     77.00853    88.922483    81.249922    1603.9197   0.03332226  0.034739264  0.041756492   0.10981802    0.0273478  0.027438487  0.032864447  0.087650735 
  526000   -1793738.1    12102.059   -42.929191     77.00853    88.922483    81.249922    1606.6446  0.033922797  0.035185262  0.041693212   0.11080127   0.02774828   0.02791747  0.032956928  0.088622677 
  527000   -1793873.2    12073.948   -884.39633     77.00853    88.922483    81.249922    1602.9126   0.03386861  0.034776779  0.042050755   0.11069614  0.027485199  0.027082076  0.033787065  0.088354341 
  528000   -1793844.8    12030.257   -1112.9571     77.00853    88.922483    81.249922    1597.1122  0.033426517  0.035020374  0.041537443   0.10998433  0.026904404  0.027513706   0.03255224   0.08697035 
  529000   -1793806.7    12110.035   -129.34648     77.00853    88.922483    81.249922    1607.7034  0.033546174  0.035105164  0.042137518   0.11078886  0.027186625   0.02764963  0.033249877  0.088086132 
  530000   -1793832.9    12011.657   -897.12977     77.00853    88.922483    81.249922     1594.643  0.033872199  0.035184463  0.041495475   0.11055214  0.027182385  0.027805251  0.033033569  0.088021205 
  531000   -1793891.2    12056.305   -1260.1267     77.00853    88.922483    81.249922    1600.5703  0.034175821  0.034896363   0.04179786   0.11087004  0.027001503  0.027604035  0.032932423   0.08753796 
  532000   -1793811.5    12052.051   -514.21209     77.00853    88.922483    81.249922    1600.0056  0.034444476  0.034649581  0.041581966   0.11067602  0.027536964  0.027227621  0.033586833  0.088351419 
  533000   -1793827.5    12021.752   -376.62348     77.00853    88.922483    81.249922    1595.9832  0.033303736  0.034594347  0.042288791   0.11018687  0.026381275  0.027311492  0.033360663  0.087053429 
  534000   -1793896.8    12068.272   -708.93224     77.00853    88.922483    81.249922     1602.159  0.032885149  0.034550986  0.041476828   0.10891296  0.026569311  0.027044621  0.032374986  0.085988918 
  535000   -1793838.1    12048.662   -513.21884     77.00853    88.922483    81.249922    1599.5556  0.033232003  0.034243042  0.041014592   0.10848964  0.026644557  0.027085485  0.031898195  0.085628237 
  536000   -1793981.5    12036.648   -1289.3291     77.00853    88.922483    81.249922    1597.9607  0.032771242  0.034171268   0.04295578   0.10989829  0.026561529  0.026952721   0.03409298   0.08760723 
  537000   -1793919.4    12101.575   -893.14163     77.00853    88.922483    81.249922    1606.5802  0.033501931  0.034207418  0.041016651     0.108726  0.027440413   0.02741128  0.032344038  0.087195731 
  538000   -1793893.4    12126.427   -563.38036     77.00853    88.922483    81.249922    1609.8796  0.033336813  0.034832103  0.042366562   0.11053548  0.027345868  0.026860942  0.033347305  0.087554115 
  539000   -1793848.5    12058.713   -749.95801     77.00853    88.922483    81.249922    1600.8901  0.032695754  0.034942794  0.042660587   0.11029914  0.026622671   0.02757298   0.03342459   0.08762024 
  540000   -1793921.6    12032.072   -1175.5145     77.00853    88.922483    81.249922    1597.3531  0.033111494  0.035222079  0.041325552   0.10965912  0.027066338  0.027496887  0.031985605  0.086548829 
  541000   -1793897.4    12099.364   -566.71504     77.00853    88.922483    81.249922    1606.2868  0.033606202  0.035431396  0.042152879   0.11119048  0.027171019  0.027374463  0.033476325  0.088021807 
  542000   -1793895.5    12075.596   -703.65955     77.00853    88.922483    81.249922    1603.1314  0.034039493  0.034703386  0.040971359   0.10971424  0.027681588  0.027327664  0.032565978  0.087575231 
  543000   -1793784.9    12087.449    43.887519     77.00853    88.922483    81.249922    1604.7049  0.033374122  0.035619592  0.042195588    0.1111893  0.026563203  0.028091721  0.033215434  0.087870358 
  544000   -1793833.9    12071.928   -603.47509     77.00853    88.922483    81.249922    1602.6444  0.034542764  0.035229083  0.042652438   0.11242428  0.027505611  0.027587087  0.034246977  0.089339675 
  545000   -1793905.7     12147.87   -830.69349     77.00853    88.922483    81.249922    1612.7264  0.034057734  0.034403188  0.041900135   0.11036106  0.027250646   0.02714444  0.033219467  0.087614553 
  546000   -1793860.3    12136.468   -582.43106     77.00853    88.922483    81.249922    1611.2126  0.034592673  0.034990143  0.042059805   0.11164262  0.027251773  0.027991552  0.033227628  0.088470953 
  547000   -1793861.5      12036.2   -861.38301     77.00853    88.922483    81.249922    1597.9012  0.034433023  0.034454756  0.042295072   0.11118285  0.027121477  0.027155395  0.033001686  0.087278558 
  548000   -1793894.9    12066.826    -927.9441     77.00853    88.922483    81.249922    1601.9671  0.033305197   0.03482577  0.040959108   0.10909008   0.02625894  0.027611266  0.032577704  0.086447911 
  549000   -1793834.3    12043.757   -421.71064     77.00853    88.922483    81.249922    1598.9044  0.033221681  0.035073123  0.042287948   0.11058275  0.026968965  0.027482559   0.03362752  0.088079043 
  550000   -1793811.3     12039.42   -512.84441     77.00853    88.922483    81.249922    1598.3287  0.034104176  0.035321648  0.041152805   0.11057863   0.02707556   0.02796634  0.032568031  0.087609931 
  551000   -1793804.4    11926.907   -614.30597     77.00853    88.922483    81.249922    1583.3916  0.034509779   0.03486378   0.04271531   0.11208887  0.027526474  0.027682437  0.034002098   0.08921101 
  552000   -1793805.2    12090.626   -224.31746     77.00853    88.922483    81.249922    1605.1267  0.034256916  0.034981178  0.041576272   0.11081437   0.02742252   0.02748978  0.032434544  0.087346844 
  553000     -1793815    12039.432   -609.35388     77.00853    88.922483    81.249922    1598.3303  0.033870073  0.035587933  0.041148909   0.11060691  0.027253429  0.027879842  0.032014819   0.08714809 
  554000   -1793897.8    12017.413   -1304.8657     77.00853    88.922483    81.249922    1595.4071  0.034878679  0.034741077  0.041504901   0.11112466  0.027050222  0.027579776  0.032509984  0.087139982 
  555000   -1793841.4    12092.594   -638.56416     77.00853    88.922483    81.249922     1605.388  0.034654217    0.0346698  0.041095936   0.11041995  0.027557994  0.027831365  0.032178867  0.087568226 
  556000   -1793898.8    12022.634   -960.45424     77.00853    88.922483    81.249922    1596.1002   0.03456606  0.034552062  0.042834289   0.11195241  0.027719862  0.027442166  0.034564616  0.089726644 
  557000   -1793851.9    12064.771   -705.34361     77.00853    88.922483    81.249922    1601.6942  0.034405373  0.034098373  0.040873677   0.10937742  0.026918155  0.027135371  0.032651328  0.086704855 
  558000   -1793875.2    12001.212   -848.22655     77.00853    88.922483    81.249922    1593.2563  0.033810513  0.034292732  0.042878113   0.11098136  0.026911906  0.027214083  0.034773672  0.088899661 
  559000   -1793849.1     12102.37   -528.52985     77.00853    88.922483    81.249922    1606.6858   0.03355391  0.034485956  0.040700812   0.10874068  0.027015786  0.027651898  0.032338115    0.0870058 
  560000   -1793818.7    12047.654   -445.99502     77.00853    88.922483    81.249922    1599.4218  0.034201087  0.034989442  0.040612333   0.10980286  0.027399748  0.028101472   0.03213201   0.08763323 
  561000   -1793870.6    12083.354   -825.04578     77.00853    88.922483    81.249922    1604.1613  0.033171606  0.034222051  0.042640905   0.11003456  0.026990507  0.027781864  0.033919385  0.088691756 
  562000   -1793855.9    12088.852   -428.38543     77.00853    88.922483    81.249922    1604.8912  0.033501873  0.033397824   0.04102195   0.10792165  0.026880359  0.026524644  0.033061499  0.086466502 
  563000   -1793856.6    12082.238   -1019.9536     77.00853    88.922483    81.249922    1604.0131  0.033515901  0.034925138  0.042842639   0.11128368  0.026874441  0.027749733  0.033534265   0.08815844 
  564000   -1793877.1    12018.105   -594.32605     77.00853    88.922483    81.249922    1595.4989  0.033342778   0.03421858  0.041448038    0.1090094  0.026819067  0.027352407  0.033554106   0.08772558 
  565000   -1793919.8    12055.091   -726.00115     77.00853    88.922483    81.249922    1600.4091  0.033974267  0.033932509  0.041847485   0.10975426  0.027278425  0.027087573  0.033603666  0.087969664 
  566000   -1793906.7    11999.107   -1239.9662     77.00853    88.922483    81.249922    1592.9768  0.033348331  0.034325716  0.042026398   0.10970044  0.026563206  0.027640726  0.033328824  0.087532756 
  567000   -1793838.2    12082.166   -583.56482     77.00853    88.922483    81.249922    1604.0036  0.033902271  0.034881598  0.041793704   0.11057757  0.027497203  0.027807579  0.033655291  0.088960074 
  568000   -1793925.6    12047.213   -1340.5414     77.00853    88.922483    81.249922    1599.3633  0.033950415  0.034420074  0.041320061   0.10969055  0.027895845  0.028196609  0.033435656   0.08952811 
  569000   -1793882.8    12022.682   -399.39176     77.00853    88.922483    81.249922    1596.1066  0.034033671  0.034377954  0.041873383   0.11028501  0.027224223  0.027804719   0.03360297  0.088631913 
  570000   -1793920.5    12036.321   -928.12734     77.00853    88.922483    81.249922    1597.9172  0.033573682  0.035279126  0.040889341   0.10974215  0.026794186  0.028196494  0.031853519  0.086844199 
  571000   -1793858.2    12077.065   -655.32137     77.00853    88.922483    81.249922    1603.3264  0.033536717  0.034470634  0.042047761   0.11005511  0.026942009  0.027787535  0.033489339  0.088218882 
  572000   -1793830.5    12035.063   -483.11055     77.00853    88.922483    81.249922    1597.7503  0.034205571  0.034700917  0.041405358   0.11031185  0.027703962   0.02759454  0.033277116  0.088575618 
  573000   -1793864.3    12069.023   -650.34195     77.00853    88.922483    81.249922    1602.2587  0.033826553  0.034928202  0.042139351   0.11089411  0.027496011  0.028090743  0.033112326   0.08869908 
  574000   -1793902.1    12008.153   -1226.0853     77.00853    88.922483    81.249922    1594.1778  0.033736065   0.03586926  0.041112817   0.11071814  0.027314574  0.028821143  0.032875686  0.089011402 
  575000   -1793824.3    11988.282   -209.58195     77.00853    88.922483    81.249922    1591.5397  0.033184469  0.035909552  0.040880048   0.10997407  0.026790712  0.028692298  0.032720978  0.088203988 
  576000   -1793792.2    12044.713   -594.70572     77.00853    88.922483    81.249922    1599.0314  0.033771472  0.035416194  0.041925616   0.11111328  0.027650415  0.027184365  0.033728499  0.088563279 
  577000   -1793883.3    12074.207   -796.94421     77.00853    88.922483    81.249922     1602.947  0.032640392   0.03572809  0.042117769   0.11048625  0.026806017  0.028291494  0.033759469   0.08885698 
  578000   -1793915.5    12011.469   -1168.8659     77.00853    88.922483    81.249922     1594.618  0.032956536  0.035216809  0.041575677   0.10974902  0.027404354  0.027651297  0.034095573  0.089151224 
  579000   -1793901.1    12033.961   -1078.8784     77.00853    88.922483    81.249922     1597.604   0.03385961  0.035880985  0.042165947   0.11190654  0.027774625  0.028759447   0.03387448  0.090408552 
  580000   -1793878.3    12059.565   -815.28803     77.00853    88.922483    81.249922    1601.0031  0.033445111  0.035194725  0.041158535   0.10979837  0.026880331   0.02782273  0.032582184  0.087285245 
  581000   -1793846.4    12045.222   -506.09606     77.00853    88.922483    81.249922     1599.099  0.033196043    0.0355791  0.041540109   0.11031525   0.02634088  0.027786414  0.034218553  0.088345846 
  582000   -1793937.3    11971.605   -1156.7707     77.00853    88.922483    81.249922    1589.3257  0.033266845  0.035457822  0.040585035    0.1093097  0.027253639  0.027548639  0.032642427  0.087444704 
  583000   -1793852.6    12030.792   -721.98389     77.00853    88.922483    81.249922    1597.1832  0.033625216  0.035519864  0.041657757   0.11080284  0.027430252  0.027884203  0.033501314  0.088815769 
  584000   -1793843.1    12083.804   -258.97568     77.00853    88.922483    81.249922    1604.2211  0.033736666  0.034913091  0.042203934   0.11085369  0.027017331  0.027993677  0.034013092    0.0890241 
  585000   -1793882.2    12096.847   -599.09218     77.00853    88.922483    81.249922    1605.9526  0.033561437  0.035053618  0.042220275   0.11083533  0.027503124  0.027397934  0.033931993  0.088833051 
  586000   -1793871.4     12142.69   -942.13802     77.00853    88.922483    81.249922    1612.0386  0.032165184  0.035189587  0.041709646   0.10906442  0.026418165  0.027807066   0.03313456  0.087359792 
  587000   -1793799.5    12110.872   -281.10079     77.00853    88.922483    81.249922    1607.8145  0.033398273  0.035485315   0.04231498   0.11119857  0.026948518  0.028199754  0.033562011  0.088710282 
  588000   -1793921.2     11998.83   -934.10724     77.00853    88.922483    81.249922    1592.9401   0.03387024  0.035042787  0.042350034   0.11126306  0.027714243  0.027661191  0.033629551  0.089004985 
  589000     -1793886    12108.432   -604.53045     77.00853    88.922483    81.249922    1607.4905  0.033150603  0.035478694  0.041583517   0.11021281  0.026952045  0.028009079   0.03322314  0.088184263 
  590000   -1793859.5    12048.374   -708.43644     77.00853    88.922483    81.249922    1599.5174  0.033445391  0.035275854   0.04292306   0.11164431  0.026832549  0.027511945  0.034497083  0.088841577 
  591000   -1793809.7    12059.588   -156.30218     77.00853    88.922483    81.249922    1601.0062   0.03410188  0.034204335  0.041321954   0.10962817  0.027221271  0.027785694  0.032905301  0.087912266 
  592000   -1793910.6    12112.528   -908.25701     77.00853    88.922483    81.249922    1608.0344  0.034435392  0.035124336   0.04226367    0.1118234   0.02721831  0.028028067  0.033791383   0.08903776 
  593000   -1793935.6    11986.443    -1097.014     77.00853    88.922483    81.249922    1591.2956  0.033324057  0.034512498  0.041405921   0.10924248  0.026403636  0.026823651  0.033494304  0.086721591 
  594000     -1793793    12009.758   -400.46872     77.00853    88.922483    81.249922    1594.3909  0.034172493  0.034993425  0.042211194   0.11137711  0.027427418  0.027629733  0.033954194  0.089011346 
  595000   -1793867.3    12063.986   -540.55029     77.00853    88.922483    81.249922      1601.59  0.034433987  0.035058852  0.041830608   0.11132345   0.02761384  0.028288571  0.034029539  0.089931951 
  596000   -1793887.5    12018.922   -797.97832     77.00853    88.922483    81.249922    1595.6074  0.033550412  0.034614096  0.041958787    0.1101233  0.026475058  0.027365419  0.033050794   0.08689127 
  597000     -1793825    12073.342   -485.56421     77.00853    88.922483    81.249922    1602.8322   0.03437373  0.034555633  0.042081592   0.11101096  0.027761202   0.02815217  0.034109849  0.090023221 
  598000   -1793818.5     12043.96   -284.16221     77.00853    88.922483    81.249922    1598.9314  0.034721247  0.034818137  0.040859348   0.11039873  0.027536976  0.027725284  0.032188648  0.087450908 
  599000     -1793870    12054.208   -764.39373     77.00853    88.922483    81.249922    1600.2919    0.0337829  0.035214043    0.0424667   0.11146364  0.026815623  0.028351871  0.033813784  0.088981278 
  600000   -1793857.2    12111.721   -897.09853     77.00853    88.922483    81.249922    1607.9273   0.03377931  0.034568959   0.04171835   0.11006662  0.026369866  0.028165503  0.033584984  0.088120353 
  601000   -1793809.6    12104.172   -426.44297     77.00853    88.922483    81.249922     1606.925  0.035068325   0.03548352  0.041790259    0.1123421   0.02810481  0.027949153  0.033343597   0.08939756 
  602000   -1793857.1    12018.079   -709.45624     77.00853    88.922483    81.249922    1595.4955  0.035224263  0.034695942  0.042295131   0.11221534  0.028098848  0.027662552  0.034388592  0.090149991 
  603000   -1793912.6    11983.064   -1314.4436     77.00853    88.922483    81.249922     1590.847  0.033762015  0.034847076  0.040716925   0.10932602  0.027056935  0.027439621  0.032818889  0.087315445 
  604000   -1793885.3    11983.547   -944.62994     77.00853    88.922483    81.249922    1590.9111  0.034782103  0.035766544  0.041992326   0.11254097  0.027930385  0.028544943  0.033239876  0.089715204 
  605000   -1793928.2    12021.775   -1024.6298     77.00853    88.922483    81.249922    1595.9862  0.033363121  0.034681613   0.04207166   0.11011639  0.026487733  0.027748521  0.034310787  0.088547041 
  606000   -1793884.9    12012.116   -347.69007     77.00853    88.922483    81.249922    1594.7039  0.034924947  0.035527364  0.041747481   0.11219979  0.028128097  0.028185803  0.033480985  0.089794885 
  607000     -1793850    12050.384   -645.22557     77.00853    88.922483    81.249922    1599.7843  0.034910585  0.034965141   0.04208712   0.11196285  0.027870912  0.027812457  0.033654778  0.089338147 
  608000   -1793857.4     12030.86   -904.86911     77.00853    88.922483    81.249922    1597.1922  0.033103222  0.035090095  0.042116146   0.11030946  0.026553238  0.027414011  0.033775719  0.087742968 
  609000   -1793927.5    12023.919   -1065.4188     77.00853    88.922483    81.249922    1596.2708  0.033446858  0.035722706  0.041543826   0.11071339  0.027002039  0.028211288  0.033244515  0.088457841 
  610000   -1793832.8    12046.288    -395.1773     77.00853    88.922483    81.249922    1599.2405  0.033616253  0.035668542  0.041206118   0.11049091  0.027395592  0.027895708  0.032514568  0.087805868 
  611000   -1793813.4    12064.496   -380.92395     77.00853    88.922483    81.249922    1601.6578  0.034341844  0.036042547  0.042742309    0.1131267  0.027430884   0.02820239   0.03423354  0.089866814 
  612000   -1793870.9    12101.641   -408.53619     77.00853    88.922483    81.249922    1606.5891  0.034025166  0.036268008   0.04203435   0.11232752  0.027295732  0.028256051  0.033208897   0.08876068 
  613000   -1793807.6    12037.979   -395.35063     77.00853    88.922483    81.249922    1598.1374  0.033966507  0.035844214  0.041549324   0.11136004  0.027071092  0.027806788  0.033711737  0.088589617 
  614000     -1793890    12031.732   -733.94472     77.00853    88.922483    81.249922     1597.308  0.033144736  0.036014545  0.042727081   0.11188636  0.026476755  0.027943648  0.034649044  0.089069446 
  615000   -1793882.2    12062.215   -1004.3669     77.00853    88.922483    81.249922    1601.3549  0.033655362  0.035387753  0.041284884     0.110328   0.02685652  0.027660986  0.032671061  0.087188568 
  616000   -1793911.1    12043.657   -1498.5451     77.00853    88.922483    81.249922    1598.8912  0.034493681  0.035997914  0.041653365   0.11214496   0.02695325  0.027716034  0.033368761  0.088038046 
  617000   -1793861.4    12057.187   -871.74481     77.00853    88.922483    81.249922    1600.6874  0.033593176  0.036097262  0.042485569   0.11217601  0.027220455  0.028493922  0.033887997  0.089602374 
  618000   -1793915.9    12015.073   -704.11642     77.00853    88.922483    81.249922    1595.0964  0.033611423  0.036676597  0.041660794   0.11194881  0.027170083  0.028573566  0.033270795  0.089014444 
  619000   -1793797.1    12076.683   -499.17942     77.00853    88.922483    81.249922    1603.2757  0.033699661  0.036087733  0.042252466   0.11203986  0.027089054  0.027892817  0.033958657  0.088940529 
  620000   -1793842.6    12085.468   -740.57219     77.00853    88.922483    81.249922    1604.4419  0.033674072  0.034909154  0.041040179   0.10962341  0.027580466  0.027384403   0.03300512  0.087969989 
  621000   -1793905.1     12060.34    -908.4294     77.00853    88.922483    81.249922     1601.106  0.033709306  0.035677468  0.042479357   0.11186613  0.027160328  0.027923433  0.034279047  0.089362808 
  622000   -1793836.9    11962.301   -742.34844     77.00853    88.922483    81.249922    1588.0906  0.033086803   0.03511354  0.042065844   0.11026619  0.026428232  0.027746556  0.033465662   0.08764045 
  623000   -1793866.6    12043.591   -173.68456     77.00853    88.922483    81.249922    1598.8824  0.033763134  0.035610642  0.042206956   0.11158073  0.027911329  0.028392011  0.034131541  0.090434881 
  624000   -1793841.2    11993.118   -577.83949     77.00853    88.922483    81.249922    1592.1817  0.033062867  0.035486954  0.042357078    0.1109069  0.026642489  0.027863442  0.034672552  0.089178483 
  625000   -1793871.5    12024.889    -682.9225     77.00853    88.922483    81.249922    1596.3996  0.034392447  0.035239777   0.04129323   0.11092545  0.027966761  0.027334399  0.032865644  0.088166804 
  626000   -1793884.7    12100.679   -542.47023     77.00853    88.922483    81.249922    1606.4613  0.034178736  0.035638817  0.042219638   0.11203719  0.027352326  0.028379099  0.033408979  0.089140403 
  627000   -1793904.1    12096.081   -961.14623     77.00853    88.922483    81.249922    1605.8508  0.033098162  0.035225202  0.041220623   0.10954399  0.026974193  0.027970193  0.033543461  0.088487847 
  628000   -1793848.8    11974.472   -661.86476     77.00853    88.922483    81.249922    1589.7063   0.03421857  0.034818809  0.041274001   0.11031138  0.026884963  0.027817321  0.032530764  0.087233048 
  629000   -1793883.7    12096.182   -998.65663     77.00853    88.922483    81.249922    1605.8643  0.033437583  0.034646451  0.041179989   0.10926402  0.027395053  0.027811276  0.033208604  0.088414933 
  630000   -1793824.5    12065.427   -339.46279     77.00853    88.922483    81.249922    1601.7813  0.033791895  0.035262809  0.042141212   0.11119592  0.027919395  0.028239573   0.03370744  0.089866407 
  631000   -1793831.6    12068.876   -304.62981     77.00853    88.922483    81.249922    1602.2392  0.033100171  0.035339932  0.042133909   0.11057401  0.026749542  0.028398204  0.033370513  0.088518259 
  632000   -1793882.7     12132.13   -729.72326     77.00853    88.922483    81.249922    1610.6367  0.033050402  0.034740335  0.042054099   0.10984484  0.027284145  0.028089941  0.033081834   0.08845592 
  633000   -1793799.5    12043.976   -552.70981     77.00853    88.922483    81.249922    1598.9336  0.033515726  0.034241926  0.041826219   0.10958387   0.02671344  0.027747745  0.032889664  0.087350849 
  634000   -1793849.7    12003.278   -454.29716     77.00853    88.922483    81.249922    1593.5306  0.033694559  0.034216999  0.041391025   0.10930258   0.02736738  0.026973933  0.033180898   0.08752221 
  635000   -1793874.7    12092.261   -988.30214     77.00853    88.922483    81.249922    1605.3438   0.03410708  0.034819885  0.040527195   0.10945416  0.026871798  0.027655183  0.032556883  0.087083865 
  636000   -1793909.6    12076.689   -1142.5558     77.00853    88.922483    81.249922    1603.2764  0.034258636   0.03448281  0.042205664   0.11094711  0.027709304  0.027255241  0.033603062  0.088567607 
  637000   -1793841.7     12026.45   -577.63404     77.00853    88.922483    81.249922    1596.6068  0.034435958  0.034810064  0.040727921   0.10997394  0.027860716  0.027169453  0.032346456  0.087376625 
  638000   -1793900.4    12102.358   -1014.1547     77.00853    88.922483    81.249922    1606.6843  0.034631828  0.035068956  0.042390962   0.11209175  0.027450315  0.027935111  0.033686526  0.089071952 
  639000     -1793934    12140.033   -1170.3801     77.00853    88.922483    81.249922    1611.6859  0.033278936  0.034579212  0.041905607   0.10976376  0.026652477  0.027660993  0.033251133  0.087564603 
  640000   -1793853.8    12163.742   -129.27589     77.00853    88.922483    81.249922    1614.8334  0.033022621   0.03465014  0.041996653   0.10966941  0.026892749  0.027802957  0.034187206  0.088882912 
  641000   -1793882.6    12069.609   -946.25761     77.00853    88.922483    81.249922    1602.3365  0.033645486  0.034738174  0.042037997   0.11042166   0.02769368  0.027891881  0.033642988  0.089228548 
  642000     -1793835    11997.955   -864.90237     77.00853    88.922483    81.249922    1592.8239  0.034469818  0.035602553   0.04162202   0.11169439  0.027771726  0.028271799  0.032861153  0.088904678 
  643000   -1793844.2    12132.571    -662.0329     77.00853    88.922483    81.249922    1610.6953  0.034709672  0.034457404   0.04308768   0.11225476  0.027821199  0.027769042  0.034765291  0.090355532 
  644000   -1793845.3    12015.923    -773.0355     77.00853    88.922483    81.249922    1595.2092  0.033669632  0.035870864  0.040884412   0.11042491  0.026949622  0.028119582  0.032522048  0.087591252 
  645000     -1793890    12089.965   -424.01831     77.00853    88.922483    81.249922    1605.0389  0.034139035  0.035443578  0.043230807   0.11281342   0.02696182  0.028022441  0.034715202  0.089699463 
  646000   -1793869.4    12066.884   -804.13557     77.00853    88.922483    81.249922    1601.9747  0.034857516   0.03510671  0.042034038   0.11199826  0.027479339   0.02831463  0.033586057  0.089380026 
  647000   -1793836.2    11970.672   -536.67371     77.00853    88.922483    81.249922    1589.2018  0.034931278  0.034412082  0.041245723   0.11058908    0.0273344  0.027831927  0.033648495  0.088814822 
  648000   -1793868.5    12041.552   -577.01608     77.00853    88.922483    81.249922    1598.6117  0.034322595     0.035686  0.044119616   0.11412821  0.026988862  0.028028367  0.035674451   0.09069168 
  649000   -1793903.4    12101.696   -1222.1656     77.00853    88.922483    81.249922    1606.5964  0.034107562  0.035124334  0.041167789   0.11039968  0.027291361  0.028112299  0.032827671  0.088231331 
  650000   -1793863.1    12045.845   -675.78556     77.00853    88.922483    81.249922    1599.1817  0.034632442  0.034771249  0.042426587   0.11183028  0.027426651  0.027808121  0.034099409  0.089334181 
  651000   -1793916.4    12064.027   -732.32644     77.00853    88.922483    81.249922    1601.5955  0.033729034  0.034699161  0.041081966   0.10951016  0.027419234  0.027830765  0.033207089  0.088457087 
  652000   -1793896.2    12057.295   -353.21631     77.00853    88.922483    81.249922    1600.7017  0.032979518  0.035791421  0.042904864    0.1116758  0.026257473  0.028779309  0.034545734  0.089582516 
  653000   -1793903.3    12071.371   -704.99128     77.00853    88.922483    81.249922    1602.5704  0.033901653  0.035082675  0.042016882   0.11100121  0.027303257  0.027792555  0.033603368   0.08869918 
  654000     -1793896    12057.797   -1207.7932     77.00853    88.922483    81.249922    1600.7683  0.034265132  0.034949375  0.040659349   0.10987386  0.027439624  0.027528069  0.032229547  0.087197239 
  655000   -1793863.9    12063.636   -742.23829     77.00853    88.922483    81.249922    1601.5435  0.033804429   0.03507349  0.043386629   0.11226455  0.027147164   0.02753832   0.03509843  0.089783914 
  656000   -1793830.2    12117.479   -622.34752     77.00853    88.922483    81.249922    1608.6917  0.033862912  0.035753264  0.041487514   0.11110369  0.027186444  0.027909321  0.032984493  0.088080258 
  657000   -1793804.7    12083.248   -325.74558     77.00853    88.922483    81.249922    1604.1473  0.033705379  0.035282014  0.042550213   0.11153761  0.026920944  0.028003236  0.034207225  0.089131405 
  658000   -1793897.8    12011.497   -615.07439     77.00853    88.922483    81.249922    1594.6217    0.0338802  0.035425221  0.041869832   0.11117525  0.026609387  0.027761337   0.03415868  0.088529403 
  659000     -1793910    11991.059   -1207.6392     77.00853    88.922483    81.249922    1591.9084  0.033510964  0.036251633  0.041426086   0.11118868  0.027082663  0.029096525  0.033047439  0.089226627 
  660000   -1793920.1    12077.247   -1058.0748     77.00853    88.922483    81.249922    1603.3505  0.033054911  0.035707817  0.042136324   0.11089905  0.027066844  0.028234096  0.033956141  0.089257081 
  661000   -1793806.8    12055.815   -342.25971     77.00853    88.922483    81.249922    1600.5053  0.034027621  0.034829927   0.04116424   0.11002179  0.027595919  0.027688802  0.032604486  0.087889207 
  662000   -1793890.9    12072.747   -312.71699     77.00853    88.922483    81.249922    1602.7531  0.033510303  0.035651133  0.041253248   0.11041468   0.02698337  0.028386605  0.033386855   0.08875683 
  663000   -1793816.1    12103.469   -280.25733     77.00853    88.922483    81.249922    1606.8317  0.033992704  0.035270609  0.041775375   0.11103869  0.027986217  0.028966197  0.033773991  0.090726405 
  664000   -1793847.7    12026.383   -323.88839     77.00853    88.922483    81.249922    1596.5979  0.032529496  0.034948844  0.041791007   0.10926935  0.027072959  0.028187781  0.033910312  0.089171052 
  665000   -1793806.4    12007.713   -588.56966     77.00853    88.922483    81.249922    1594.1194  0.033174731  0.035169375  0.043052974   0.11139708   0.02762295  0.027824105  0.035306345    0.0907534 
  666000   -1793855.1    12043.876   -572.83376     77.00853    88.922483    81.249922    1598.9202  0.033684883   0.03655805  0.041616055   0.11185899  0.027779691  0.028773291  0.033816329   0.09036931 
  667000   -1793913.8    12030.561   -1479.3288     77.00853    88.922483    81.249922    1597.1526  0.032228751  0.035687714  0.042390151   0.11030662  0.027149535  0.027727447  0.034075071  0.088952052 
  668000   -1793844.4    12065.302   -368.33579     77.00853    88.922483    81.249922    1601.7648  0.033296126  0.035061619  0.041944841   0.11030259  0.027014506   0.02792917  0.034163114   0.08910679 
  669000   -1793879.4    12076.796   -706.57017     77.00853    88.922483    81.249922    1603.2907   0.03254446  0.035337241  0.041440538   0.10932224  0.026942944  0.028373354  0.033043921   0.08836022 
  670000   -1793831.1    11993.029   -625.22657     77.00853    88.922483    81.249922      1592.17  0.033890517  0.036228293  0.042172319   0.11229113  0.028113876  0.028615055  0.033803516  0.090532447 
  671000   -1793863.3    12085.936   -566.19179     77.00853    88.922483    81.249922     1604.504  0.033484515  0.035326964  0.041783374   0.11059485  0.027689368  0.028576269  0.033797831  0.090063468 
  672000   -1793879.9    12109.818   -974.08949     77.00853    88.922483    81.249922    1607.6746  0.033097196  0.035262377  0.042508463   0.11086804  0.027422928  0.027893114  0.034291376  0.089607418 
  673000   -1793869.4    12036.082   -1149.4236     77.00853    88.922483    81.249922    1597.8856  0.033570379  0.036480957  0.041879033   0.11193037  0.028392359  0.028314259  0.033673469  0.090380086 
  674000   -1793875.9    12043.934   -633.66957     77.00853    88.922483    81.249922    1598.9279  0.032334782  0.035158013  0.041280541   0.10877334  0.027281987  0.027641975   0.03399764  0.088921602 
  675000   -1793806.1    11994.006   -149.84947     77.00853    88.922483    81.249922    1592.2997  0.033863677  0.035312929  0.042914655   0.11209126     0.027947  0.027950558  0.034851672   0.09074923 
  676000   -1793868.3    12082.418   -607.81815     77.00853    88.922483    81.249922    1604.0371  0.033190943  0.036061418  0.041582207   0.11083457  0.026991231  0.028659715  0.033250984  0.088901929 
  677000   -1793871.3    12049.242   -1149.5391     77.00853    88.922483    81.249922    1599.6327  0.032792749  0.035275198  0.042405513   0.11047346   0.02746552   0.02791704  0.034295797  0.089678357 
  678000   -1793859.3     11996.02   -965.12939     77.00853    88.922483    81.249922     1592.567  0.033028989  0.035606832  0.041909501   0.11054532  0.027295617  0.028249586  0.033108769  0.088653972 
  679000   -1793824.7    12087.221   -892.86297     77.00853    88.922483    81.249922    1604.6747  0.034467901  0.035224791  0.042669915   0.11236261  0.027570909  0.028143564  0.033748535  0.089463008 
  680000   -1793818.8    12041.188   -607.92763     77.00853    88.922483    81.249922    1598.5634  0.034052464  0.035586969  0.042318753   0.11195819  0.027070751  0.027916572  0.034010141  0.088997464 
  681000   -1793895.3    12024.614   -673.21694     77.00853    88.922483    81.249922    1596.3631  0.032874082  0.035090107  0.041875555   0.10983974  0.026765969  0.027811844  0.033281343  0.087859156 
  682000   -1793844.4    11995.412   -308.44959     77.00853    88.922483    81.249922    1592.4862   0.03411575   0.03475722  0.042547078   0.11142005  0.027912042   0.02799634  0.034729236  0.090637618 
  683000   -1793923.8     12036.03   -670.67834     77.00853    88.922483    81.249922    1597.8787  0.033192412   0.03510733  0.042197082   0.11049682  0.027300233   0.02849716  0.034517818  0.090315211 
  684000     -1793949    12088.183   -1090.8387     77.00853    88.922483    81.249922    1604.8024  0.034251337  0.034659234  0.042624679   0.11153525  0.027945491  0.027494011  0.034522691  0.089962194 
  685000   -1793913.3     12080.98   -1270.8883     77.00853    88.922483    81.249922    1603.8462  0.033620129  0.035945389  0.041781121   0.11134664  0.027475224  0.028711872  0.033721855  0.089908951 
  686000   -1793832.4    12038.897   -766.92878     77.00853    88.922483    81.249922    1598.2592  0.033220126   0.03540458  0.042507736   0.11113244  0.026349945  0.028260979  0.033870591  0.088481515 
  687000   -1793958.9    12021.272   -1485.9131     77.00853    88.922483    81.249922    1595.9194  0.032841798  0.034487475   0.04265561   0.10998488  0.026991476  0.027848633  0.034200271  0.089040379 
  688000   -1793847.2    12052.465   -541.02218     77.00853    88.922483    81.249922    1600.0605  0.033629873  0.035515387  0.041575207   0.11072047  0.027134176  0.028571518  0.033231161  0.088936855 
  689000   -1793881.4    12078.223   -170.68122     77.00853    88.922483    81.249922    1603.4801  0.034071946  0.035325341  0.042477313    0.1118746  0.027464535  0.028057354  0.034195565  0.089717454 
  690000   -1793846.4    12068.313   -565.26963     77.00853    88.922483    81.249922    1602.1644  0.032674207  0.035527115  0.041427623   0.10962895  0.026666675  0.028408251  0.033511277  0.088586203 
  691000   -1793861.8    12052.021   -603.79708     77.00853    88.922483    81.249922    1600.0016  0.033847429  0.035689313  0.042035589   0.11157233   0.02697343  0.028311792  0.034078403  0.089363625 
  692000   -1793869.2     11979.92   -776.07204     77.00853    88.922483    81.249922    1590.4296  0.034345823  0.036127232  0.042054841    0.1125279  0.027318615  0.028943016  0.033232171  0.089493802 
  693000     -1793930    12045.882   -1143.8602     77.00853    88.922483    81.249922    1599.1866  0.034585889  0.035232005  0.041825034   0.11164293  0.027341922  0.028721263  0.033509044  0.089572229 
  694000   -1793914.4    12051.792   -883.36987     77.00853    88.922483    81.249922    1599.9712  0.035359822  0.035384336  0.042410086   0.11315424  0.027578995  0.027884643  0.033479676  0.088943314 
  695000   -1793913.1    12058.032   -997.63657     77.00853    88.922483    81.249922    1600.7996  0.033946687  0.035199739  0.041048826   0.11019525  0.027259698  0.028300717  0.032590518  0.088150934 
  696000   -1793973.1    12131.485   -1495.6532     77.00853    88.922483    81.249922     1610.551  0.033856122  0.034882395  0.041977742   0.11071626   0.02667097  0.028235209  0.034220151  0.089126329 
  697000   -1793822.4    12014.707   -999.74802     77.00853    88.922483    81.249922    1595.0478  0.035116515  0.035162129  0.041842503   0.11212115  0.027769476  0.027893656  0.033222935  0.088886068 
  698000   -1793788.2    11994.348   -570.58584     77.00853    88.922483    81.249922     1592.345  0.035439688   0.03522504   0.04311822   0.11378295  0.028117263  0.028625454  0.034321394  0.091064111 
  699000   -1793782.7    12057.351   -542.13317     77.00853    88.922483    81.249922    1600.7092  0.034171353  0.036151161  0.042582873   0.11290539  0.027114401  0.029056815  0.033914124   0.09008534 
  700000   -1793849.3    12074.019   -786.70655     77.00853    88.922483    81.249922     1602.922  0.034323915   0.03508109  0.041323586   0.11072859  0.027499639    0.0288031  0.033192283  0.089495022 
  701000     -1793963    11998.937   -1472.2459     77.00853    88.922483    81.249922    1592.9542  0.033367592  0.035715319  0.042962232   0.11204514  0.027225033  0.028557637  0.034061767  0.089844437 
  702000   -1793784.1    12027.999   -849.02375     77.00853    88.922483    81.249922    1596.8125  0.034292055  0.035786909  0.041671356   0.11175032  0.027723892  0.028531813  0.032989117  0.089244822 
  703000   -1793841.3    12099.857    -690.2078     77.00853    88.922483    81.249922    1606.3522  0.034475432    0.0355315  0.041552361   0.11155929   0.02787458  0.028428251  0.033663389   0.08996622 
  704000   -1793882.8    11984.623   -947.88711     77.00853    88.922483    81.249922     1591.054   0.03462494  0.035543582  0.042045209   0.11221373  0.027495618  0.028754038  0.034134746  0.090384402 
  705000   -1793862.8    11985.545   -661.67894     77.00853    88.922483    81.249922    1591.1764  0.033151555  0.035572322  0.042302333   0.11102621  0.026836401  0.028749351  0.034290194  0.089875946 
  706000   -1793866.9    12019.125   -464.34872     77.00853    88.922483    81.249922    1595.6344  0.034773324  0.036640979  0.042693005   0.11410731  0.027649282  0.028209152  0.034235988  0.090094422 
  707000   -1793895.2    12010.416   -363.15137     77.00853    88.922483    81.249922    1594.4782  0.034645076  0.036717647  0.042063371   0.11342609  0.028110288  0.029280764  0.033642376  0.091033427 
  708000   -1793879.3    12034.886   -410.01249     77.00853    88.922483    81.249922    1597.7267  0.033246747  0.035395959  0.042109206   0.11075191  0.026830263  0.027886358  0.034079026  0.088795648 
  709000   -1793891.2    12072.976   -614.52771     77.00853    88.922483    81.249922    1602.7835  0.033470493  0.035698115  0.042204809   0.11137342  0.026702951  0.028618288  0.033388451   0.08870969 
  710000     -1793909    12037.919   -908.06787     77.00853    88.922483    81.249922    1598.1295  0.034037914  0.036265713  0.042275193   0.11257882  0.027071798  0.028253392  0.034026726  0.089351915 
  711000   -1793864.1    12050.904   -589.98886     77.00853    88.922483    81.249922    1599.8532  0.035254424  0.036168765  0.043279612    0.1147028  0.028208227  0.029714486  0.035048477   0.09297119 
  712000   -1793900.8    12103.517   -1073.0361     77.00853    88.922483    81.249922    1606.8381   0.03445831  0.036217629  0.041349347   0.11202529  0.026973805  0.029074628  0.032923844  0.088972276 
  713000   -1793838.8    12054.316   -826.51314     77.00853    88.922483    81.249922    1600.3062  0.034556075   0.03465503  0.043400818   0.11261192  0.027840785  0.028477912  0.034853494  0.091172191 
  714000   -1793889.7    11933.212   -908.06681     77.00853    88.922483    81.249922    1584.2287  0.033666317  0.035502737  0.041690976   0.11086003  0.026950859  0.028432812  0.032993519   0.08837719 
  715000   -1793872.1    12036.994   -939.20307     77.00853    88.922483    81.249922    1598.0067  0.034208019  0.036045837  0.042699406   0.11295326  0.027691939  0.029063819  0.033873009  0.090628767 
  716000   -1793818.6    12036.217   -527.28667     77.00853    88.922483    81.249922    1597.9035  0.034856363   0.03570127  0.042875648   0.11343328  0.027737294  0.028593069  0.033887263  0.090217626 
  717000   -1793822.5    11977.315   -1125.1362     77.00853    88.922483    81.249922    1590.0838  0.033719057  0.035439804  0.041499081   0.11065794   0.02727505  0.028581452   0.03258182  0.088438322 
  718000   -1793859.4    12063.857   -782.71356     77.00853    88.922483    81.249922    1601.5729  0.033320226  0.035274048  0.042023436   0.11061771  0.026735493  0.027966629  0.033851478  0.088553601 
  719000   -1793853.2    12095.993   -767.08431     77.00853    88.922483    81.249922    1605.8392  0.034485772  0.034966691  0.041100718   0.11055318  0.027082593  0.028316307  0.032292076  0.087690977 
  720000   -1793858.3    12043.024   -679.25286     77.00853    88.922483    81.249922    1598.8072  0.034059501  0.034194045  0.042153865   0.11040741  0.027232522  0.028158977  0.034314269  0.089705768 
  721000   -1793851.8    12065.821   -705.61744     77.00853    88.922483    81.249922    1601.8336  0.034079838  0.034615095  0.042382815   0.11107775  0.027865767  0.028378479  0.033874457  0.090118703 
  722000     -1793810    12115.789   -543.16206     77.00853    88.922483    81.249922    1608.4673  0.033736772  0.035644485  0.041232035   0.11061329  0.027509598  0.029384949   0.03303197  0.089926518 
  723000     -1793813    11989.924   -626.49276     77.00853    88.922483    81.249922    1591.7578  0.033716686  0.035772423  0.041759351   0.11124846  0.027836797   0.02875311  0.033688085  0.090277993 
  724000   -1793911.6    12021.537   -835.41502     77.00853    88.922483    81.249922    1595.9545  0.034191044  0.035156501  0.041467572   0.11081512  0.027655618  0.028271472  0.033286547  0.089213638 
  725000   -1793864.9    12011.894   -324.27843     77.00853    88.922483    81.249922    1594.6744  0.033417949  0.035439114  0.042202185   0.11105925  0.027472432   0.02885254  0.033114682  0.089439655 
  726000   -1793869.5    12014.219   -916.86041     77.00853    88.922483    81.249922     1594.983   0.03267165   0.03509438  0.041912674    0.1096787  0.027091222  0.028517763  0.033741084  0.089350069 
  727000   -1793835.3    12121.245    -243.4896     77.00853    88.922483    81.249922    1609.1916  0.033221524  0.035072795  0.041897932   0.11019225  0.027396234  0.028435628  0.034206731  0.090038594 
  728000   -1793889.8    11988.752   -617.44989     77.00853    88.922483    81.249922    1591.6021  0.033473501  0.034903456  0.041463367   0.10984032  0.027696758  0.028564664  0.033634264  0.089895685 
  729000   -1793822.6    12064.384   -1115.7352     77.00853    88.922483    81.249922    1601.6429  0.033394972  0.035981489  0.042949189   0.11232565  0.027908802  0.029260369   0.03424933  0.091418501 
  730000   -1793926.4    12097.341   -821.46242     77.00853    88.922483    81.249922    1606.0181  0.032965926  0.034849689  0.042527091   0.11034271  0.027218024  0.028232093  0.033751572  0.089201688 
  731000   -1793876.1     12032.03   -993.96965     77.00853    88.922483    81.249922    1597.3476  0.032969733   0.03540856   0.04167443   0.11005272  0.026736709  0.028247199  0.033235109  0.088219017 
  732000     -1793923    12067.953     -1420.37     77.00853    88.922483    81.249922    1602.1167  0.033344327  0.036495019  0.042325051    0.1121644  0.027405473  0.029277608  0.033830658  0.090513739 
  733000   -1793878.6    12088.387   -653.63746     77.00853    88.922483    81.249922    1604.8294  0.033325815  0.035901239  0.042170891   0.11139795  0.026795397  0.028675646  0.033049316   0.08852036 
  734000     -1793853    12046.202    -881.8361     77.00853    88.922483    81.249922    1599.2291  0.034200947  0.035948057  0.042626521   0.11277553    0.0278663  0.028425102  0.033575606  0.089867008 
  735000   -1793941.4    11945.585    -1134.424     77.00853    88.922483    81.249922    1585.8714  0.033315809  0.036042684  0.042689703    0.1120482  0.027187907  0.028232244  0.034022299   0.08944245 
  736000   -1793802.3    11989.358   -1038.4787     77.00853    88.922483    81.249922    1591.6826  0.033800672   0.03597349  0.042499876   0.11227404  0.027346881  0.028924997  0.034117916  0.090389793 
  737000   -1793816.4    12113.172   -229.50683     77.00853    88.922483    81.249922    1608.1199  0.034246201   0.03579328  0.043148414    0.1131879  0.027285553  0.028558814  0.034996481  0.090840848 
  738000   -1793865.9    11972.483   -1061.6192     77.00853    88.922483    81.249922    1589.4423   0.03303237  0.035521105  0.042273441   0.11082692  0.027165055  0.028301094  0.033515273  0.088981422 
  739000   -1793770.2    12013.167   -381.64158     77.00853    88.922483    81.249922    1594.8434  0.034821809  0.036353208   0.04248448    0.1136595  0.027886544  0.028515427  0.034230139   0.09063211 
  740000   -1793857.6    12007.566   -606.20904     77.00853    88.922483    81.249922    1594.0999  0.034079997  0.036450456  0.041879052   0.11240951  0.027271532  0.028463679  0.033463639   0.08919885 
  741000     -1793849    12029.338   -779.99925     77.00853    88.922483    81.249922    1596.9902  0.033883079  0.035915974  0.041821616   0.11162067  0.027066858  0.028091845  0.033960756  0.089119459 
  742000   -1793887.1    11950.386   -1401.3988     77.00853    88.922483    81.249922    1586.5087  0.034315594  0.037098181  0.042441774   0.11385555  0.027676849  0.029242041  0.034460275  0.091379164 
  743000     -1793878    12024.889   -552.81029     77.00853    88.922483    81.249922    1596.3996  0.034124928  0.036673338  0.041413546   0.11221181  0.027530655  0.028556431  0.033014063   0.08910115 
  744000   -1793836.1    12006.478   -794.34372     77.00853    88.922483    81.249922    1593.9554  0.035502753  0.036335885  0.042417668   0.11425631  0.028436515    0.0281299  0.034035662  0.090602076 
  745000   -1793826.6    12096.366   -343.08629     77.00853    88.922483    81.249922    1605.8887  0.033928902  0.036234577   0.04254935   0.11271283  0.027459234  0.028653393   0.03434441  0.090457037 
  746000   -1793781.1    12104.381   -338.35138     77.00853    88.922483    81.249922    1606.9528  0.034347035  0.036722501  0.042144448   0.11321398  0.027301024  0.028801149   0.03331344  0.089415613 
  747000   -1793868.9      12058.2   -715.32436     77.00853    88.922483    81.249922    1600.8219  0.033941033  0.035295664  0.041792179   0.11102888  0.027148696  0.028042043  0.033822179  0.089012918 
  748000   -1793794.6    11984.129   -207.29578     77.00853    88.922483    81.249922    1590.9884  0.034521871  0.036088154  0.041817447   0.11242747  0.027588954  0.028115495  0.033361479  0.089065928 
  749000   -1793854.9    12070.418    -565.6927     77.00853    88.922483    81.249922    1602.4439  0.034169447  0.035603695  0.042191017   0.11196416  0.027308056  0.028591213   0.03356178   0.08946105 
  750000   -1793929.6    12029.281   -887.00502     77.00853    88.922483    81.249922    1596.9827  0.034013272  0.035659884   0.04135682   0.11102998  0.027335508  0.027790614  0.032904055  0.088030177 
  751000   -1793887.2    12013.433   -1101.1464     77.00853    88.922483    81.249922    1594.8787  0.034238154  0.035720223  0.041427509   0.11138589  0.027662906  0.028682942  0.033187364  0.089533212 
  752000     -1793832    12065.911    -595.1539     77.00853    88.922483    81.249922    1601.8456  0.033919633  0.035370057  0.042530384   0.11182007  0.027189316  0.028663953  0.034622535  0.090475803 
  753000   -1793774.9    12008.626   -548.50519     77.00853    88.922483    81.249922    1594.2405  0.034212899  0.036071792  0.042090036   0.11237473  0.027625529  0.028604352  0.033350916  0.089580797 
  754000   -1793884.4    12123.845   -953.78244     77.00853    88.922483    81.249922    1609.5368  0.034760561  0.035806457  0.042710586    0.1132776  0.028051732  0.028718868  0.034207633  0.090978233 
  755000   -1793928.1    11979.908   -1401.3377     77.00853    88.922483    81.249922     1590.428  0.034231216  0.036015425  0.041528276   0.11177492   0.02682705  0.028262702  0.032707506  0.087797257 
  756000   -1793872.6    12032.091   -911.21368     77.00853    88.922483    81.249922    1597.3558  0.035251077  0.035281459  0.042850718   0.11338325  0.028157375  0.028455394  0.034626696  0.091239465 
  757000   -1793882.5    12063.399   -722.27443     77.00853    88.922483    81.249922    1601.5121  0.034028502  0.035302472  0.042571276   0.11190225  0.027521379  0.028487525  0.033957269  0.089966173 
  758000   -1793844.7    12038.808   -542.27172     77.00853    88.922483    81.249922    1598.2475  0.034639632  0.035792647  0.042456569   0.11288885  0.028203554  0.028728362  0.034335347  0.091267264 
  759000   -1793832.7    12044.739   -519.69181     77.00853    88.922483    81.249922    1599.0348  0.034510963   0.03574659  0.042823696   0.11308125  0.027828894   0.02900285  0.034181358  0.091013102 
  760000   -1793842.5    12032.095   -633.70229     77.00853    88.922483    81.249922    1597.3563  0.034645544  0.035724089   0.04209173   0.11246136  0.027741432  0.029412438  0.033842023  0.090995893 
  761000   -1793921.9    12081.797   -866.05208     77.00853    88.922483    81.249922    1603.9546   0.03438351  0.035794346  0.042624692   0.11280255  0.027294386  0.028798044  0.033543659  0.089636089 
  762000   -1793873.3    12114.003    -790.7743     77.00853    88.922483    81.249922    1608.2302  0.033808929  0.035001173  0.040576747   0.10938685  0.027052087  0.028230258  0.032234557  0.087516902 
  763000   -1793830.4    12091.744   -405.86057     77.00853    88.922483    81.249922    1605.2751  0.034287392  0.035541281  0.042931353   0.11276003  0.027482946  0.028746724  0.034281187  0.090510857 
  764000     -1793842    12000.662   -592.16025     77.00853    88.922483    81.249922    1593.1832  0.034113796  0.034964696  0.042955626   0.11203412  0.027455052  0.028521959   0.03461296  0.090589971 
  765000     -1793883    12088.211   -668.31321     77.00853    88.922483    81.249922    1604.8061  0.033869346  0.035728468  0.042081304   0.11167912  0.026957052  0.028819909  0.033727946  0.089504907 
  766000   -1793875.6    11988.417   -463.49049     77.00853    88.922483    81.249922    1591.5577  0.034378784  0.037239214  0.042306635   0.11392463  0.028162874  0.028732471  0.034008291  0.090903636 
  767000   -1793891.2    12041.411   -1044.3186     77.00853    88.922483    81.249922    1598.5931  0.034023594   0.03565579  0.042193291   0.11187267  0.027291079  0.028282921   0.03356489  0.089138891 
  768000   -1793861.9    12032.792   -1274.7648     77.00853    88.922483    81.249922    1597.4488  0.034763824  0.035340865  0.042562483   0.11266717  0.027897933  0.028455936  0.034382168  0.090736037 
  769000   -1793923.7    12069.176   -1418.8549     77.00853    88.922483    81.249922     1602.279  0.034192871  0.035831753  0.041294331   0.11131896   0.02715248  0.028777685  0.033403762  0.089333927 
  770000     -1793868    11999.268   -1373.4392     77.00853    88.922483    81.249922    1592.9982  0.034407285  0.035230914   0.04218599   0.11182419  0.027297386  0.028537683  0.033303795  0.089138864 
  771000   -1793894.2    11987.098   -1106.1777     77.00853    88.922483    81.249922    1591.3825  0.035351843  0.035440723   0.04277403    0.1135666  0.027657265  0.028515142   0.03416591  0.090338318 
  772000   -1793760.8    12041.477   0.22462702     77.00853    88.922483    81.249922    1598.6018  0.034113006  0.035949464  0.041131546   0.11119402  0.027211547  0.028655601  0.032694668  0.088561816 
  773000   -1793817.8     12065.97   -284.63003     77.00853    88.922483    81.249922    1601.8535  0.034422798  0.036413565  0.042901688   0.11373805  0.028046932  0.029126614  0.034688923  0.091862468 
  774000   -1793850.1    12045.828     -774.317     77.00853    88.922483    81.249922    1599.1794  0.034369108  0.036189342  0.042180537   0.11273899  0.027227903  0.029191728  0.032769903  0.089189534 
  775000     -1793894    12003.637   -963.85736     77.00853    88.922483    81.249922    1593.5782  0.034443712  0.035012895  0.041983513   0.11144012  0.027876747  0.028178785   0.03327541  0.089330942 
  776000   -1793891.3    11978.723    -1351.055     77.00853    88.922483    81.249922    1590.2706  0.034076861  0.035591548  0.043214239   0.11288265  0.027233851  0.028956392  0.034983418  0.091173661 
  777000   -1793813.6    12013.832   -558.54739     77.00853    88.922483    81.249922    1594.9317  0.034579594  0.036359932   0.04169439   0.11263392   0.02794605  0.029593826  0.032311546  0.089851421 
  778000   -1793863.1    12055.016   -1257.9986     77.00853    88.922483    81.249922    1600.3992  0.034539487  0.036159693  0.043730594   0.11442977  0.028199343  0.028732581  0.035628998  0.092560922 
  779000   -1793844.3    11992.237   -892.50949     77.00853    88.922483    81.249922    1592.0648   0.03373088  0.036505482  0.042531241    0.1127676   0.02725112  0.029572938  0.034006297  0.090830354 
  780000   -1793873.2    12122.162   -387.74514     77.00853    88.922483    81.249922    1609.3134  0.034503923   0.03656781  0.042131031   0.11320276  0.027543353  0.029740695  0.034233978  0.091518026 
  781000   -1793849.1    12003.532   -586.24055     77.00853    88.922483    81.249922    1593.5642  0.034435174  0.035845214  0.041955128   0.11223552  0.027660474  0.029363464  0.033328561    0.0903525 
  782000   -1793902.6    12013.291   -747.76538     77.00853    88.922483    81.249922    1594.8599  0.034457169  0.035373239  0.043111492    0.1129419  0.027713311  0.028536892  0.034257082  0.090507286 
  783000   -1793968.1    12067.699   -1115.0318     77.00853    88.922483    81.249922     1602.083  0.034638401  0.036615419  0.044152129   0.11540595  0.027980953  0.029106943  0.035531209  0.092619105 
  784000   -1793794.2    12053.321   -302.92395     77.00853    88.922483    81.249922    1600.1741  0.034347285  0.036159946  0.041849442   0.11235667  0.027473878  0.029772304   0.03297766  0.090223842 
  785000   -1793798.4    12074.311   -399.85738     77.00853    88.922483    81.249922    1602.9608  0.035451154  0.035565212  0.043518919   0.11453529  0.028278247  0.028820462  0.035168418  0.092267127 
  786000   -1793912.1    12114.219   -1062.5185     77.00853    88.922483    81.249922    1608.2589  0.034306814  0.035981383  0.042332746   0.11262094  0.027204643  0.029248988  0.034006457  0.090460089 
  787000   -1793870.7    12022.895   -909.14904     77.00853    88.922483    81.249922    1596.1349  0.033647982  0.036115407  0.041462535   0.11122592  0.027498358  0.029100789  0.032801857  0.089401003 
  788000     -1793784    11975.786   -350.12272     77.00853    88.922483    81.249922    1589.8807  0.035193688  0.034685302    0.0434972   0.11337619  0.027652944  0.028019403  0.035784462  0.091456809 
  789000   -1793883.5     12137.47   -1020.7225     77.00853    88.922483    81.249922    1611.3456  0.034442762  0.036012855   0.04112168    0.1115773  0.028090911  0.029663281  0.032868388  0.090622579 
  790000   -1793891.6    12035.786   -442.39672     77.00853    88.922483    81.249922    1597.8463  0.034516476  0.035747016  0.044189253   0.11445274  0.027673739  0.029508147  0.034750404   0.09193229 
  791000   -1793871.1    12044.033   -1092.7577     77.00853    88.922483    81.249922    1598.9412  0.033849205  0.035509616    0.0425684   0.11192722   0.02742247  0.029515871  0.033776515  0.090714856 
  792000     -1793876    12036.854   -651.26254     77.00853    88.922483    81.249922     1597.988  0.034718414  0.035886628  0.042185049   0.11279009  0.027694443  0.030046212  0.033018545    0.0907592 
  793000   -1793836.2    12041.683   -552.24752     77.00853    88.922483    81.249922    1598.6291  0.035239826  0.035363933  0.043475385   0.11407914  0.027857202  0.029014225  0.034957032  0.091828459 
  794000   -1793881.1    12053.721   -863.97092     77.00853    88.922483    81.249922    1600.2273  0.034347368  0.037108279  0.041624896   0.11308054  0.027135828  0.029836207   0.03315569  0.090127725 
  795000   -1793819.2    11964.436   -349.46771     77.00853    88.922483    81.249922     1588.374  0.034796452  0.036190222  0.043460182   0.11444686  0.028092628  0.029423701  0.034973309  0.092489638 
  796000   -1793806.5    11988.439   -369.83383     77.00853    88.922483    81.249922    1591.5606  0.034677543  0.035781971  0.041938767   0.11239828   0.02784163  0.029392466  0.033083995  0.090318091 
  797000   -1793848.1    12007.654   -767.21781     77.00853    88.922483    81.249922    1594.1115  0.034419552  0.036268527  0.042819569   0.11350765  0.027434892  0.029689434  0.033960691  0.091085018 
  798000   -1793814.5    12073.167   -753.40095     77.00853    88.922483    81.249922    1602.8089   0.03503179  0.036344225  0.042796467   0.11417248  0.027709269  0.029453782  0.034170059   0.09133311 
  799000   -1793838.5    12069.345   -492.62463     77.00853    88.922483    81.249922    1602.3014  0.032976481  0.036060243  0.042799483   0.11183621  0.026889367  0.028795337   0.03419945  0.089884155 
  800000   -1793858.3     12105.27   -507.96881     77.00853    88.922483    81.249922    1607.0707  0.033936923  0.035889726  0.043361031   0.11318768  0.027825488   0.02895324  0.034505871  0.091284599 
  801000   -1793875.4    12113.933   -1013.6149     77.00853    88.922483    81.249922     1608.221  0.033912481  0.035706757  0.042093495   0.11171273  0.027444023  0.028465609  0.033610103  0.089519735 
  802000   -1793911.4     12002.78   -1194.8457     77.00853    88.922483    81.249922    1593.4644  0.034176077  0.035656241  0.044309067   0.11414138  0.027946343  0.028926673  0.035348765  0.092221782 
  803000     -1793865    12069.994    -891.9177     77.00853    88.922483    81.249922    1602.3877  0.035008954  0.035390657  0.041835069   0.11223468  0.028207534  0.028482167  0.032755873  0.089445573 
  804000   -1793858.8    12073.378   -776.07113     77.00853    88.922483    81.249922    1602.8369  0.034377461  0.035719415  0.042805777   0.11290265  0.027277151  0.028994029  0.034236976  0.090508155 
  805000   -1793811.8    12067.038    -295.6784     77.00853    88.922483    81.249922    1601.9953  0.035104101  0.035554961  0.042586705   0.11324577  0.027817074  0.028878189  0.033334111  0.090029374 
  806000   -1793854.6    12040.427   -757.61743     77.00853    88.922483    81.249922    1598.4624  0.034858043  0.036661007  0.043805235   0.11532428  0.027743669  0.029483232  0.035374566  0.092601467 
  807000   -1793892.1    12023.219   -671.89031     77.00853    88.922483    81.249922    1596.1779  0.034092201  0.036616048  0.042282152    0.1129904  0.027481693  0.029384225   0.03354112  0.090407038 
  808000   -1793808.1    12020.424   -92.542683     77.00853    88.922483    81.249922    1595.8068  0.033881155  0.035595694  0.042066284   0.11154313   0.02732969  0.028399584  0.033001612  0.088730887 
  809000   -1793849.9    12031.405   -664.75363     77.00853    88.922483    81.249922    1597.2647  0.034147239  0.035186654  0.043729202    0.1130631  0.027606376  0.028059151  0.034650276  0.090315802 
  810000   -1793808.9    11999.189   -51.163805     77.00853    88.922483    81.249922    1592.9877  0.034499881  0.035277632  0.040873181    0.1106507  0.028388989  0.028433847  0.032104952  0.088927788 
  811000   -1793965.3    12019.874   -1480.4644     77.00853    88.922483    81.249922    1595.7338  0.033857641  0.035358791  0.043481639   0.11269807  0.027859821  0.028798393  0.034958955  0.091617169 
  812000   -1793917.2    12068.332   -1050.4296     77.00853    88.922483    81.249922    1602.1671  0.033121018  0.035240879  0.043017629   0.11137953  0.027413526  0.029027246  0.034188661  0.090629434 
  813000   -1793845.3    12045.019   -366.93629     77.00853    88.922483    81.249922     1599.072  0.033754582  0.035571495  0.042432219    0.1117583    0.0279709  0.028645194   0.03414431  0.090760404 
  814000   -1793875.4    12086.307   -435.49435     77.00853    88.922483    81.249922    1604.5533   0.03337448  0.035231017  0.042752921   0.11135842  0.027265148  0.028708923  0.033577217  0.089551287 
  815000   -1793851.6    12081.264   -505.59766     77.00853    88.922483    81.249922    1603.8839  0.033804551  0.034827744   0.04146961   0.11010191  0.027669332  0.028165539  0.032730047  0.088564917 
  816000   -1793899.1     12047.31   -1231.5622     77.00853    88.922483    81.249922    1599.3762  0.034063098  0.034530226  0.042650171   0.11124349  0.028093865  0.028078394  0.034046402  0.090218661 
  817000   -1793871.3    12071.241   -365.86525     77.00853    88.922483    81.249922    1602.5532  0.034047313  0.035245903  0.041783923   0.11107714  0.028144504    0.0285052  0.032843518  0.089493223 
  818000     -1793835    12015.723   -440.40756     77.00853    88.922483    81.249922    1595.1827  0.033819582  0.035695871   0.04414246   0.11365791  0.028007727   0.02902524  0.034931456  0.091964423 
  819000   -1793855.4    12129.589   -634.96953     77.00853    88.922483    81.249922    1610.2994  0.034379947   0.03533414   0.04265593   0.11237002  0.028499799  0.028923593  0.034014099  0.091437492 
  820000   -1793944.6    12026.857    -1071.631     77.00853    88.922483    81.249922    1596.6609  0.034700086  0.034343535  0.043744109   0.11278773   0.02843651  0.028460366  0.035420445  0.092317321 
  821000   -1793823.5    11990.516    -738.6239     77.00853    88.922483    81.249922    1591.8364  0.033963874  0.035862072  0.042417266   0.11224321  0.027887343  0.029666021  0.033703124  0.091256488 
  822000     -1793845    11994.671   -830.67073     77.00853    88.922483    81.249922    1592.3879  0.034001649  0.035795298  0.043032247   0.11282919  0.027394902   0.02910722  0.034567373  0.091069495 
  823000   -1793882.1    12079.591   -298.25417     77.00853    88.922483    81.249922    1603.6618  0.033492286  0.034722043  0.043258402   0.11147273  0.027316645     0.028877  0.034535718  0.090729363 
  824000   -1793854.3     12014.01   -566.40628     77.00853    88.922483    81.249922    1594.9553  0.033448323  0.035000666  0.041698768   0.11014776  0.027116248  0.028060607  0.033417024  0.088593879 
  825000   -1793827.2    12013.471   -724.34035     77.00853    88.922483    81.249922    1594.8838  0.034089097  0.035638783  0.042538907   0.11226679  0.028031033  0.029149055  0.033826654  0.091006742 
  826000   -1793880.6    12044.768   -956.84713     77.00853    88.922483    81.249922    1599.0387  0.034176396  0.034578367  0.043350015   0.11210478  0.027513015  0.028056425  0.034147056  0.089716495 
  827000   -1793855.7    11985.359   -648.91301     77.00853    88.922483    81.249922    1591.1516  0.032864731  0.034825395  0.042814965   0.11050509  0.027140101  0.029233756  0.033658806  0.090032662 
  828000   -1793903.5    12128.346   -431.47335     77.00853    88.922483    81.249922    1610.1344  0.033384784  0.034685955  0.042618776   0.11068951  0.027672732  0.028933207  0.033610675  0.090216614 
  829000   -1793871.3    12118.601   -465.47001     77.00853    88.922483    81.249922    1608.8405  0.033560516   0.03484664  0.042249852   0.11065701  0.027750024  0.028746882  0.033690715  0.090187621 
  830000   -1793907.3    11983.678   -1003.0407     77.00853    88.922483    81.249922    1590.9285   0.03371163  0.034812839  0.041282345   0.10980681  0.027663256   0.02875089  0.032090998  0.088505143 
  831000   -1793940.4    12023.673   -1252.7316     77.00853    88.922483    81.249922    1596.2381  0.035035675  0.034866343  0.043651274   0.11355329  0.028582535    0.0290546  0.034591007  0.092228142 
  832000   -1793884.9     12059.94   -649.43273     77.00853    88.922483    81.249922     1601.053   0.03392592  0.035931762  0.041841633   0.11169931  0.027807704  0.029144257  0.033084641  0.090036602 
  833000     -1793911    12104.953   -845.16901     77.00853    88.922483    81.249922    1607.0287  0.033831474  0.034644418  0.042150251   0.11062614  0.027849535  0.028613339  0.033677757   0.09014063 
  834000   -1793828.9    12019.191   -1071.2175     77.00853    88.922483    81.249922    1595.6431   0.03356932   0.03507258  0.042774323   0.11141622  0.028142228  0.028774772  0.034193429  0.091110428 
  835000   -1793907.8    12041.849   -672.43557     77.00853    88.922483    81.249922    1598.6512  0.033413566  0.035824205  0.042231513   0.11146928   0.02745265  0.029623575  0.033006919  0.090083144 
  836000   -1793866.1    12053.619   -763.94427     77.00853    88.922483    81.249922    1600.2138  0.033620183  0.035880158   0.04433649   0.11383683  0.027975689  0.029244143  0.034678527  0.091898359 
  837000   -1793844.7    12045.401    16.755894     77.00853    88.922483    81.249922    1599.1227  0.033789617  0.034942087  0.042016977   0.11074868  0.027280702  0.028918025  0.033214274  0.089413001 
  838000   -1793962.6    12055.818   -1205.6026     77.00853    88.922483    81.249922    1600.5057  0.033891301  0.035864161  0.042374481   0.11212994  0.027511043  0.029396683  0.033652036  0.090559763 
  839000   -1793826.4     12089.13   -630.14987     77.00853    88.922483    81.249922    1604.9281  0.034223953  0.035269468  0.043631202   0.11312462  0.027723628  0.029552477  0.034348741  0.091624846 
  840000   -1793815.8    12064.144   -292.54187     77.00853    88.922483    81.249922    1601.6109  0.034465416  0.034360971  0.041723143   0.11054953  0.027856633  0.028425739  0.032914376  0.089196748 
  841000   -1793848.7    12057.346   -908.07918     77.00853    88.922483    81.249922    1600.7085   0.03502761   0.03501712  0.043399403   0.11344413  0.028106029  0.028720099  0.034024513  0.090850642 
  842000   -1793831.7    12059.728   -449.78936     77.00853    88.922483    81.249922    1601.0247  0.034074975  0.035825626   0.04270706   0.11260766  0.027310064  0.029158351  0.033365357  0.089833772 
  843000   -1793882.1    11974.605   -984.42896     77.00853    88.922483    81.249922     1589.724  0.034859738  0.035386353   0.04254088   0.11278697  0.027916967  0.029067007  0.033419309  0.090403283 
  844000   -1793847.7    12095.473   -395.10267     77.00853    88.922483    81.249922    1605.7702  0.034664463   0.03565375  0.042208519   0.11252673  0.027936501  0.029208985  0.033425583  0.090571069 
  845000   -1793901.8     12036.23   -965.88966     77.00853    88.922483    81.249922    1597.9052  0.034440675    0.0349389    0.0418195   0.11119907  0.028028903  0.028475828  0.032859975  0.089364706 
  846000   -1793885.8    12038.011   -1633.1526     77.00853    88.922483    81.249922    1598.1416  0.034495582  0.036503865  0.043391616   0.11439106  0.027720478  0.029934138  0.034104645  0.091759262 
  847000   -1793852.1    12103.427   -501.50065     77.00853    88.922483    81.249922    1606.8261  0.033185749  0.035563916  0.042031186   0.11078085  0.026911268  0.029125012  0.032843766  0.088880045 
  848000   -1793860.6    12005.446   -1035.4666     77.00853    88.922483    81.249922    1593.8184  0.034542029  0.036039929  0.042942139    0.1135241  0.028261264  0.028878574  0.033490597  0.090630435 
  849000   -1793865.8     11973.63   -645.67438     77.00853    88.922483    81.249922    1589.5946   0.03440478  0.035224177  0.043028809   0.11265777  0.028059869  0.028879373  0.033684456  0.090623698 
  850000   -1793813.6    12070.349    -269.0854     77.00853    88.922483    81.249922    1602.4347  0.033991803  0.035523756   0.04362787   0.11314343  0.027499117  0.028607099  0.034391461  0.090497677 
  851000   -1793878.4    12031.644   -1063.8817     77.00853    88.922483    81.249922    1597.2964  0.034437565  0.035831015  0.042495076   0.11276366  0.027589384  0.028540221  0.033245715  0.089375321 
  852000   -1793888.9     12074.71   -963.45181     77.00853    88.922483    81.249922    1603.0138  0.033808073  0.035951438  0.043681785    0.1134413  0.027884137  0.029402493  0.034321507  0.091608138 
  853000   -1793824.3    12053.946   -200.44852     77.00853    88.922483    81.249922    1600.2572  0.035635572  0.036099665   0.04238479   0.11412003  0.029402679  0.029247018  0.033029032  0.091678729 
  854000   -1793890.2     12009.22   -800.10849     77.00853    88.922483    81.249922    1594.3193  0.034560865  0.035236875  0.042754713   0.11255245  0.027615318  0.028234664  0.033315936  0.089165919 
  855000   -1793922.7    12031.927   -996.79802     77.00853    88.922483    81.249922     1597.334  0.034943118  0.036398242   0.04336241   0.11470377  0.027443451  0.029296158  0.034041838  0.090781446 
  856000   -1793805.1    12030.343    167.85835     77.00853    88.922483    81.249922    1597.1236  0.035830242  0.036615542  0.042576664   0.11502245  0.028536859  0.029328374  0.033389053  0.091254287 
  857000     -1793878    12010.486   -570.43331     77.00853    88.922483    81.249922    1594.4875  0.035533729  0.035646139  0.044237346   0.11541721  0.028088189  0.028478601  0.034727882  0.091294672 
  858000   -1793849.9    12005.978   -1098.7741     77.00853    88.922483    81.249922     1593.889  0.035580605   0.03600463  0.043050538   0.11463577  0.027776278  0.029141663  0.033710183  0.090628124 
  859000   -1793877.1    12126.282   -742.57196     77.00853    88.922483    81.249922    1609.8603  0.036006385  0.036135175  0.042613789   0.11475535  0.028564936   0.02939792  0.033357724   0.09132058 
  860000   -1793834.4    12069.679   -530.54964     77.00853    88.922483    81.249922    1602.3458  0.035626109  0.035816142  0.043087783   0.11453003  0.027800476  0.029099013  0.034037234  0.090936723 
  861000     -1793885    12081.304   -961.63091     77.00853    88.922483    81.249922    1603.8892  0.034893578  0.035538469  0.041946529   0.11237858  0.027511778   0.02871886  0.032670696  0.088901334 
  862000   -1793932.5    12057.233   -1471.3889     77.00853    88.922483    81.249922    1600.6935  0.035627446  0.035945595  0.042828493   0.11440153  0.028523022  0.028995558  0.033914046  0.091432625 
  863000   -1793899.6    12039.854   -766.96949     77.00853    88.922483    81.249922    1598.3863   0.03417126  0.035652103  0.043107836    0.1129312  0.027072628  0.029170414  0.033700801  0.089943844 
  864000   -1793913.3     12102.25   -755.72769     77.00853    88.922483    81.249922    1606.6699  0.035156455  0.035217386  0.043681577   0.11405542  0.028403408   0.02910472  0.034408786  0.091916914 
  865000   -1793905.8     12085.77   -1095.2435     77.00853    88.922483    81.249922     1604.482  0.035479073  0.035017451  0.042672332   0.11316886  0.028280688  0.028761001  0.032891612    0.0899333 
  866000   -1793835.4    12024.574   -574.44391     77.00853    88.922483    81.249922    1596.3578   0.03409964  0.035218727  0.044061663   0.11338003  0.027514625  0.028256324   0.03470538  0.090476328 
  867000   -1793870.3    12064.317   -1243.7252     77.00853    88.922483    81.249922     1601.634   0.03453117  0.035086064  0.042192269    0.1118095    0.0275724  0.028615037  0.033443074  0.089630511 
  868000   -1793812.4    12117.536   -384.01281     77.00853    88.922483    81.249922    1608.6992  0.034571864  0.035584215  0.042713749   0.11286983  0.027608262  0.029202541  0.033564846   0.09037565 
  869000   -1793856.2    12078.153   -297.75713     77.00853    88.922483    81.249922    1603.4709  0.035249171   0.03542375  0.043394542   0.11406746  0.028478419  0.029638307  0.034287723  0.092404449 
  870000   -1793854.3    12093.665   -180.27668     77.00853    88.922483    81.249922    1605.5302  0.034258768   0.03525611  0.042994989   0.11250987   0.02746798  0.028863399  0.034199038  0.090530418 
  871000   -1793925.2    12060.268   -1483.1892     77.00853    88.922483    81.249922    1601.0965  0.034558228  0.035229899  0.043822121   0.11361025  0.027756878  0.028942016  0.034249021  0.090947916 
  872000   -1793884.7    12076.213   -680.51238     77.00853    88.922483    81.249922    1603.2132  0.034533375  0.035457481  0.043657283   0.11364814  0.027617253  0.029521225  0.034488203   0.09162668 
  873000   -1793833.3    11981.194   -633.98053     77.00853    88.922483    81.249922    1590.5988  0.035089526  0.035171133  0.042548106   0.11280877  0.027924015   0.02898217  0.033728626  0.090634812 
  874000     -1793875    11953.925    -950.4181     77.00853    88.922483    81.249922    1586.9785  0.035600174  0.035120625  0.043376432   0.11409723  0.028259622  0.028912679  0.034428199    0.0916005 
  875000   -1793872.4    12062.448   -1169.9695     77.00853    88.922483    81.249922    1601.3858  0.035113706  0.035476881   0.04342096   0.11401155  0.028397091  0.029785853   0.03504373  0.093226674 
  876000   -1793888.4    12102.226   -604.43117     77.00853    88.922483    81.249922    1606.6667  0.035298548  0.035874379  0.042648893   0.11382182  0.028842211  0.029911576  0.033446096  0.092199883 
  877000   -1793818.8    12146.136    64.615143     77.00853    88.922483    81.249922    1612.4961  0.035155514  0.034624217   0.04330538   0.11308511  0.028024684  0.029249583   0.03352359  0.090797857 
  878000   -1793900.2    12066.837    -1407.995     77.00853    88.922483    81.249922    1601.9685  0.034973827  0.035028669  0.043303492   0.11330599  0.027855428  0.028860506   0.03424743  0.090963364 
  879000   -1793935.3    12041.574   -1073.8654     77.00853    88.922483    81.249922    1598.6147  0.034579616  0.035447752   0.04348264   0.11351001  0.027585938  0.029115284  0.034110877    0.0908121 
  880000   -1793896.8    11996.412   -1382.1603     77.00853    88.922483    81.249922     1592.619  0.035089697  0.034729673  0.042638403   0.11245777  0.028486947  0.028863681   0.03341817  0.090768798 
  881000   -1793802.2    11982.423   -1097.8367     77.00853    88.922483    81.249922    1590.7619  0.034716214  0.034949919  0.043843559   0.11350969  0.027319376  0.029062641  0.034518292  0.090900309 
  882000   -1793958.8    12010.504   -1112.7382     77.00853    88.922483    81.249922    1594.4898  0.034720043  0.035770301  0.043559175   0.11404952  0.027493698  0.030291676  0.033966028  0.091751401 
  883000   -1793909.5    12064.058    -1150.372     77.00853    88.922483    81.249922    1601.5995  0.034874423  0.035260283  0.042417752   0.11255246  0.028337977  0.029334767  0.033420447  0.091093191 
  884000   -1793922.6    12073.563   -1171.1055     77.00853    88.922483    81.249922    1602.8614  0.035209518  0.034495512  0.042690535   0.11239556  0.028635313  0.028560207  0.033584388  0.090779908 
  885000   -1793802.3    11992.914   -516.24012     77.00853    88.922483    81.249922    1592.1547  0.034300738  0.035362064  0.043706669   0.11336947  0.027410655  0.029340501  0.034375597  0.091126752 
  886000   -1793847.3    12002.897   -1010.4911     77.00853    88.922483    81.249922      1593.48   0.03581929  0.035786328  0.041811154   0.11341677  0.028418522  0.029559753  0.032594261  0.090572536 
  887000   -1793950.9    12080.632   -1053.7773     77.00853    88.922483    81.249922       1603.8  0.034691032  0.034980435  0.044649426   0.11432089  0.028177533  0.028895998  0.035197495  0.092271026 
  888000   -1793860.7    12000.515   -666.07976     77.00853    88.922483    81.249922    1593.1638  0.034927841  0.035544606  0.042256264   0.11272871  0.027968721  0.029242902  0.033160998  0.090372621 
  889000   -1793804.2    12018.951   -344.69471     77.00853    88.922483    81.249922    1595.6112  0.035228511   0.03576988  0.042056467   0.11305486   0.02802213   0.02915795   0.03296995   0.09015003 
  890000   -1793903.3    12071.525   -1313.6545     77.00853    88.922483    81.249922    1602.5909  0.033572181  0.034979243  0.043814288   0.11236571  0.026852852   0.02821153  0.034667335  0.089731717 
  891000   -1793892.9    12122.099   -489.08745     77.00853    88.922483    81.249922     1609.305  0.033811976  0.034437033  0.043438217   0.11168723  0.027212113  0.028502421  0.033743506   0.08945804 
  892000   -1793870.8    12017.864   -477.70788     77.00853    88.922483    81.249922     1595.467  0.035061477  0.035922064  0.042623222   0.11360676  0.027574167  0.029902047  0.033015117  0.090491331 
  893000   -1793889.4     12030.32   -799.94051     77.00853    88.922483    81.249922    1597.1207   0.03462736  0.036162389  0.043283213   0.11407296  0.028027311  0.028891363  0.034096048  0.091014722 
  894000   -1793825.2    12087.117    -600.4586     77.00853    88.922483    81.249922    1604.6608  0.033487392  0.035589463  0.042891749   0.11196861  0.027804824  0.028764901  0.033984279  0.090554003 
  895000   -1793840.6    12048.337   -271.67131     77.00853    88.922483    81.249922    1599.5125  0.035134539  0.035547989   0.04228504   0.11296757  0.028080837  0.029130708  0.032639487  0.089851031 
  896000   -1793829.8    12034.667   -640.28064     77.00853    88.922483    81.249922    1597.6977  0.033807648  0.035544837  0.042725989   0.11207847  0.027565737   0.02952752  0.033741098  0.090834355 
  897000   -1793906.6    12070.127      -879.05     77.00853    88.922483    81.249922    1602.4052  0.034240644  0.035596163  0.043594923   0.11343173  0.027674509  0.028710646  0.034698922  0.091084078 
  898000   -1793951.7    12090.202   -774.64344     77.00853    88.922483    81.249922    1605.0703   0.03479921  0.035599546  0.041825416   0.11222417  0.028111196  0.028860713  0.033075162  0.090047071 
  899000   -1793852.2    12074.001   -307.20474     77.00853    88.922483    81.249922    1602.9196  0.034045944  0.035489394  0.042491129   0.11202647  0.027693032  0.029224531   0.03424026  0.091157822 
  900000   -1793826.2    12096.026   -532.73908     77.00853    88.922483    81.249922    1605.8436  0.032968327  0.035610742  0.043580973   0.11216004  0.027325022  0.029422938  0.033864342  0.090612302 
  901000   -1793843.2    12064.754   -466.08732     77.00853    88.922483    81.249922    1601.6919   0.03350036  0.035605962  0.042652912   0.11175923  0.027298521  0.029368305  0.032822261  0.089489087 
  902000   -1793887.4    12126.564   -393.78815     77.00853    88.922483    81.249922    1609.8978  0.034903284  0.035388267  0.042477651    0.1127692  0.028335874  0.029371389  0.032746354  0.090453617 
  903000   -1793847.3    12099.509   -1079.3749     77.00853    88.922483    81.249922    1606.3061  0.034033284  0.035388022  0.044090443   0.11351175  0.027809696  0.029345833   0.03456794  0.091723469 
  904000   -1793852.3     12106.65   -242.98874     77.00853    88.922483    81.249922     1607.254  0.033670895  0.035057497  0.041962792   0.11069118  0.027414686  0.028500213  0.033048601    0.0889635 
  905000   -1793847.3    12005.194   -777.67824     77.00853    88.922483    81.249922    1593.7849  0.034465262   0.03571393  0.042910462   0.11308965  0.027906694  0.029010622  0.033511868  0.090429185 
  906000   -1793864.1    12013.272   -966.56608     77.00853    88.922483    81.249922    1594.8574  0.034390728  0.036397488   0.04322707   0.11401529   0.02780956  0.030133322  0.034143072  0.092085954 
  907000   -1793844.6    12072.346    -232.1507     77.00853    88.922483    81.249922    1602.6999  0.034624151  0.036516569  0.042501886   0.11364261  0.028102611  0.029963202   0.03373672  0.091802533 
  908000   -1793826.3    12055.957   -747.26036     77.00853    88.922483    81.249922    1600.5242  0.035184168  0.035575121  0.043068032   0.11382732  0.028450996   0.02934401  0.034343725  0.092138732 
  909000   -1793849.1    12073.877   -1020.9499     77.00853    88.922483    81.249922    1602.9031  0.034168278  0.035778387  0.043407161   0.11335383   0.02791104  0.028954928  0.033425506  0.090291474 
  910000   -1793825.4    12038.339   -391.83774     77.00853    88.922483    81.249922    1598.1852  0.033788224  0.036059485  0.043231889    0.1130796  0.027359051  0.029669684  0.033708511  0.090737246 
  911000     -1793905    12079.509   -991.65048     77.00853    88.922483    81.249922    1603.6508  0.034682043  0.035305245  0.042685818   0.11267311  0.027962526  0.028829286    0.0334161  0.090207912 
  912000   -1793908.9    12067.987   -684.93497     77.00853    88.922483    81.249922    1602.1212  0.033806474  0.035463766  0.042865082   0.11213532  0.027110583  0.028780702  0.033222808  0.089114093 
  913000     -1793863    12059.942   -732.63161     77.00853    88.922483    81.249922    1601.0532  0.034085571  0.036677319  0.043538868   0.11430176  0.027669101  0.030443651  0.034181838   0.09229459 
  914000   -1793800.6    12117.409   -212.15208     77.00853    88.922483    81.249922    1608.6823  0.034684774  0.035244471  0.042809032   0.11273828  0.028085934  0.029090077  0.033875136  0.091051147 
  915000   -1793902.6    12022.771   -997.68637     77.00853    88.922483    81.249922    1596.1185  0.034206551  0.035441583  0.044014888   0.11366302  0.027616949  0.029379925   0.03426436  0.091261233 
  916000     -1793848    12051.659   -727.19295     77.00853    88.922483    81.249922    1599.9536  0.034546404  0.035938982  0.041886508   0.11237189  0.027824552  0.029585193  0.032640093  0.090049837 
  917000   -1793906.3    12016.524   -1107.9328     77.00853    88.922483    81.249922    1595.2891  0.034695513   0.03522553  0.042540353    0.1124614  0.028253221  0.029122276  0.032953521  0.090329018 
  918000   -1793848.2    12019.208   -621.17012     77.00853    88.922483    81.249922    1595.6454  0.034890127  0.034903542  0.042519054   0.11231272  0.028308917  0.028891895  0.032811313  0.090012126 
  919000   -1793859.9    12022.473   -1038.0428     77.00853    88.922483    81.249922    1596.0788  0.034042032  0.035014934  0.043548212   0.11260518  0.027537026  0.028354571  0.033933905  0.089825502 
  920000   -1793868.1    11988.351   -726.93533     77.00853    88.922483    81.249922    1591.5489  0.035087716  0.035270627  0.043080722   0.11343906  0.028342376  0.029081896   0.03364237  0.091066642 
  921000   -1793833.7    12036.974   -317.01784     77.00853    88.922483    81.249922     1598.004  0.033941462  0.035559653  0.043054772   0.11255589  0.027472131  0.028918459  0.033603478  0.089994068 
  922000   -1793858.9    12079.626   -947.48738     77.00853    88.922483    81.249922    1603.6664  0.034344651  0.035458593  0.042945445   0.11274869   0.02794342    0.0289909   0.03355674   0.09049106 
  923000   -1793859.1    11998.802   -1013.1071     77.00853    88.922483    81.249922    1592.9363  0.033498527  0.035668526   0.04324793   0.11241498  0.026636452   0.02915113   0.03380994  0.089597522 
  924000   -1793903.5    12046.348   -918.33431     77.00853    88.922483    81.249922    1599.2484  0.033764057  0.035325449  0.042619919   0.11170942   0.02751154  0.028787797  0.033626215  0.089925552 
  925000   -1793938.8     12059.57   -1093.9463     77.00853    88.922483    81.249922    1601.0038  0.034599241  0.035149539  0.043678915    0.1134277  0.027782269  0.029323302  0.034317887  0.091423458 
  926000   -1793839.6     12049.45   -838.34179     77.00853    88.922483    81.249922    1599.6603  0.035034038  0.035197016  0.042845871   0.11307692  0.027609315  0.028803658  0.033271396   0.08968437 
  927000   -1793864.6    12062.573   -619.88514     77.00853    88.922483    81.249922    1601.4025  0.034768209  0.035486759  0.042497012   0.11275198  0.027747075   0.02862193  0.033239439  0.089608444 
  928000   -1793891.4    12046.502   -1132.9116     77.00853    88.922483    81.249922    1599.2689  0.034616659  0.035684653  0.043325734   0.11362705  0.027235875  0.029202379  0.033408836   0.08984709 
  929000   -1793833.9    12095.033   -909.06127     77.00853    88.922483    81.249922    1605.7118  0.034646602  0.035761003  0.042915331   0.11332294  0.028111888  0.029420766   0.03282569  0.090358344 
  930000   -1793872.6    12034.656    -918.3614     77.00853    88.922483    81.249922    1597.6963  0.035282838  0.035114766  0.043820103   0.11421771  0.028675912  0.028954543  0.033690493  0.091320947 
  931000   -1793887.4    11995.744    -738.4959     77.00853    88.922483    81.249922    1592.5304  0.034455632  0.035157725  0.042991748    0.1126051  0.027505383  0.029178566   0.03346025    0.0901442 
  932000   -1793873.3    12015.098   -778.33019     77.00853    88.922483    81.249922    1595.0997  0.034292134  0.034910394  0.044277709   0.11348024  0.027598705  0.029262104  0.034662402  0.091523211 
  933000   -1793747.2    12086.486   -182.20203     77.00853    88.922483    81.249922    1604.5771  0.034474764  0.035537937  0.041678447   0.11169115  0.027908179  0.029309836  0.032191045  0.089409061 
  934000   -1793883.6     12022.06   -792.97444     77.00853    88.922483    81.249922     1596.024  0.033737033  0.035303486  0.044833004   0.11387352  0.027429095  0.029298771  0.035049127  0.091776992 
  935000   -1793914.3     11943.24   -749.29853     77.00853    88.922483    81.249922    1585.5601  0.034153785  0.034558006  0.043005033   0.11171682  0.027377218  0.028172019  0.033469474  0.089018711 
  936000   -1793851.1    11979.476   -1046.1918     77.00853    88.922483    81.249922    1590.3706  0.034697542  0.035428163  0.042886998    0.1130127  0.028130853  0.029357699  0.033631956  0.091120508 
  937000   -1793871.5     12084.23   -1011.8487     77.00853    88.922483    81.249922    1604.2776  0.034484802   0.03534727  0.045376003   0.11520807  0.027949167  0.029475137  0.035052533  0.092476837 
  938000   -1793895.7     12046.17   -961.64056     77.00853    88.922483    81.249922    1599.2248  0.033896466  0.034962507  0.042460026     0.111319  0.028208631  0.029276291  0.033232405  0.090717327 
  939000   -1793915.7     12044.02   -703.47467     77.00853    88.922483    81.249922    1598.9393  0.035875884  0.035213979  0.042776792   0.11386666  0.029389354  0.029295871  0.033340963  0.092026188 
  940000   -1793837.2     12054.61   -728.24718     77.00853    88.922483    81.249922    1600.3452  0.035213246  0.035872709  0.042584601   0.11367056  0.029001579  0.029732036  0.033346295  0.092079909 
  941000   -1793872.1    11956.214   -586.23873     77.00853    88.922483    81.249922    1587.2824  0.034031603  0.034992262  0.044050348   0.11307421   0.02778931  0.028827262  0.035239422  0.091855994 
  942000     -1793878    12050.438   -1103.0418     77.00853    88.922483    81.249922    1599.7915  0.035546437  0.035490239  0.043780989   0.11481766  0.029355851  0.029273426  0.034234324  0.092863601 
  943000   -1793873.7    12007.335   -650.49463     77.00853    88.922483    81.249922    1594.0692  0.034600734  0.035877573  0.043049008   0.11352732  0.027795775  0.029177773  0.033654371  0.090627919 
  944000   -1793817.8    12080.882   -255.34837     77.00853    88.922483    81.249922    1603.8331  0.034630581  0.035243717  0.044624282   0.11449858  0.028061686  0.029206137  0.034468007  0.091735829 
  945000   -1793831.4    12046.377   -886.71864     77.00853    88.922483    81.249922    1599.2523  0.035666158  0.036212665  0.042862951   0.11474177  0.028871196  0.029331625  0.032908749   0.09111157 
  946000   -1793892.3     11965.95   -1410.3477     77.00853    88.922483    81.249922     1588.575  0.034927513  0.035495754  0.043996227   0.11441949  0.027967833  0.028667668    0.0336627  0.090298201 
  947000   -1793869.1     12068.37    -644.4168     77.00853    88.922483    81.249922     1602.172  0.034736571  0.036052479  0.044902026   0.11569108  0.027084442  0.029033913  0.034480212  0.090598567 
  948000   -1793886.3    12097.596   -1285.1819     77.00853    88.922483    81.249922     1606.052  0.035531628  0.035353751  0.042841091   0.11372647  0.027641803  0.028414933  0.033245937  0.089302673 
  949000     -1793874    12044.663   -1392.8904     77.00853    88.922483    81.249922    1599.0247  0.035989293  0.035340658  0.045047392   0.11637734  0.028482426  0.029095395  0.035432461  0.093010282 
  950000   -1793908.6    12072.552   -805.73185     77.00853    88.922483    81.249922    1602.7273   0.03508371  0.036189821  0.043146579   0.11442011  0.027513974  0.029296991  0.033273555   0.09008452 
  951000   -1793850.7    12031.208   -696.63654     77.00853    88.922483    81.249922    1597.2385  0.036529849  0.036171795  0.043908914   0.11661056  0.028996914  0.028872332   0.03431609  0.092185336 
  952000   -1793870.3     12097.99   -1111.5469     77.00853    88.922483    81.249922    1606.1044  0.034438458  0.036151201  0.043571903   0.11416156  0.027241064  0.029203938  0.033502334  0.089947336 
  953000     -1793850    12078.182   -162.44429     77.00853    88.922483    81.249922    1603.4746  0.034814207  0.035758899  0.044562776   0.11513588  0.027502524   0.02836012  0.033985722  0.089848366 
  954000   -1793831.9    11994.899   -508.43109     77.00853    88.922483    81.249922    1592.4182  0.036302142  0.036527647  0.044444086   0.11727387  0.028807743  0.028675652  0.034588607  0.092072002 
  955000   -1793882.8    12101.424    -395.8491     77.00853    88.922483    81.249922    1606.5603  0.034908207  0.037491309  0.042694244   0.11509376  0.027404269  0.029262415  0.033243528  0.089910212 
  956000   -1793883.1      12024.5   -610.67223     77.00853    88.922483    81.249922     1596.348  0.034605816  0.036516162  0.043718868   0.11484085  0.026860816  0.029053126  0.034141186  0.090055127 
  957000   -1793874.2    12086.097   -217.24301     77.00853    88.922483    81.249922    1604.5255   0.03556096  0.037142029  0.042756345   0.11545933  0.027111852  0.029400095  0.032652717  0.089164664 
  958000   -1793876.1     12055.19   -1090.3207     77.00853    88.922483    81.249922    1600.4223   0.03636209  0.037036048  0.043566532   0.11696467  0.028191003  0.029666821   0.03323992  0.091097745 
  959000   -1793875.6    12055.884   -857.72973     77.00853    88.922483    81.249922    1600.5144  0.036967201  0.037148487  0.045128935   0.11924462  0.028426551  0.028774458  0.034572181   0.09177319 
  960000   -1793907.5    12076.415   -637.68008     77.00853    88.922483    81.249922      1603.24  0.035879099  0.036311197  0.043172542   0.11536284  0.028360732  0.028729529  0.033245399   0.09033566 
  961000   -1793850.8    12046.698   -597.27313     77.00853    88.922483    81.249922    1599.2949  0.035656544  0.037110725  0.044756304   0.11752357   0.02772843   0.02992799  0.034669029  0.092325448 
  962000   -1793852.3      12052.4   -359.10628     77.00853    88.922483    81.249922    1600.0519  0.036477299  0.037300891   0.04327578   0.11705397  0.028890569  0.030235092  0.033185704  0.092311365 
  963000   -1793821.1    11944.507   -163.93054     77.00853    88.922483    81.249922    1585.7283   0.03640322  0.036609082  0.043421384   0.11643369  0.029297252  0.029248777  0.033608605  0.092154634 
  964000   -1793922.1    12124.287   -711.95978     77.00853    88.922483    81.249922    1609.5954  0.036067427  0.036307095  0.044080782    0.1164553  0.028407883  0.028339525  0.034184473   0.09093188 
  965000   -1793867.5    12060.387   -527.62609     77.00853    88.922483    81.249922    1601.1123  0.035636427   0.03702823  0.043143323   0.11580798  0.028269677   0.03024869  0.033430248  0.091948615 
  966000   -1793868.5    12101.346   -714.19706     77.00853    88.922483    81.249922    1606.5499  0.035457224  0.036430772  0.044103604    0.1159916  0.027771681  0.029362226  0.034203435  0.091337342 
  967000   -1793826.8    12046.516   -343.19748     77.00853    88.922483    81.249922    1599.2708  0.036328769  0.036710789  0.042560011   0.11559957  0.029210509  0.029862922  0.032696693  0.091770124 
  968000   -1793849.5    12036.365   -479.48997     77.00853    88.922483    81.249922    1597.9232  0.035745292  0.036487211  0.044714233   0.11694674  0.028301594  0.029672812  0.034238764   0.09221317 
  969000   -1793867.9    12035.626   -725.63786     77.00853    88.922483    81.249922    1597.8251  0.035295018  0.036794817  0.043506737   0.11559657  0.027828976  0.029678058   0.03354922  0.091056253 
  970000   -1793871.3    12062.987   -759.63936     77.00853    88.922483    81.249922    1601.4573  0.035486536  0.036094203  0.042902409   0.11448315  0.028231781  0.028460761  0.032850988   0.08954353 
  971000   -1793829.9    12063.966   -240.35796     77.00853    88.922483    81.249922    1601.5874  0.035527774   0.03590739  0.045282502   0.11671767  0.027973324  0.028774794  0.035326404  0.092074522 
  972000   -1793831.3    11981.438   -819.11048     77.00853    88.922483    81.249922    1590.6311   0.03596675  0.036536549   0.04415765   0.11666095  0.028302095  0.029427328  0.033167777  0.090897199 
  973000   -1793876.5    11985.838   -505.48024     77.00853    88.922483    81.249922    1591.2152  0.035050034  0.036763521  0.043532193   0.11534575  0.028341645  0.029821506  0.033970133  0.092133284 
  974000   -1793885.5    12086.431   -364.92335     77.00853    88.922483    81.249922    1604.5698  0.034568096  0.037083371  0.043356378   0.11500784  0.027737202  0.029865858  0.033495162  0.091098221 
  975000   -1793856.3    12087.107   -1174.4995     77.00853    88.922483    81.249922    1604.6596  0.035338381  0.036397152  0.043532734   0.11526827  0.028252142  0.029057438  0.032758241  0.090067821 
  976000   -1793850.1    12056.802   -605.44965     77.00853    88.922483    81.249922    1600.6363   0.03579213  0.037001632  0.044953142    0.1177469  0.028899796  0.029553672  0.034417696  0.092871164 
  977000   -1793839.4    12065.178   -1010.3563     77.00853    88.922483    81.249922    1601.7482  0.035858609  0.036954345  0.042206375   0.11501933  0.028383258  0.029180003  0.032536825  0.090100086 
  978000   -1793890.6    12027.682   -814.55127     77.00853    88.922483    81.249922    1596.7703  0.035130263  0.036590202  0.044271209   0.11599167  0.028378919  0.028890124  0.033935726  0.091204769 
  979000     -1793867     12102.76   -611.78663     77.00853    88.922483    81.249922    1606.7375   0.03562888  0.037068504  0.043603053   0.11630044  0.028520323  0.029640799  0.033050842  0.091211964 
  980000   -1793814.4    12026.236   -945.19752     77.00853    88.922483    81.249922    1596.5785  0.036198951  0.036794163  0.043443672   0.11643679  0.028993928  0.029498601   0.03269519  0.091187719 
  981000   -1793892.9    12006.472   -956.60306     77.00853    88.922483    81.249922    1593.9546   0.03524419  0.037130255  0.044046435   0.11642088  0.028401056  0.029713171  0.034096191  0.092210419 
  982000   -1793881.4    12034.615   -1074.0938     77.00853    88.922483    81.249922    1597.6907  0.035519084  0.037079798  0.042850009   0.11544889  0.028228868  0.029184182   0.03320522   0.09061827 
  983000   -1793891.5    12089.743   -762.79275     77.00853    88.922483    81.249922    1605.0095  0.034937882   0.03688616  0.043728576   0.11555262  0.027869531   0.02874506  0.033908988  0.090523578 
  984000   -1793932.8    12099.768   -1022.9414     77.00853    88.922483    81.249922    1606.3404  0.035957153    0.0378122  0.042333403   0.11610276  0.028392522  0.029902752  0.032464881  0.090760155 
  985000   -1793825.7    12034.692   -334.64357     77.00853    88.922483    81.249922     1597.701  0.035252855  0.037004797  0.043662682   0.11592033  0.028120381  0.028942745  0.033495515  0.090558641 
  986000   -1793860.3    12077.648   -663.85933     77.00853    88.922483    81.249922    1603.4038  0.035395269  0.037479354  0.044196483   0.11707111  0.028352655  0.029263007  0.033195874  0.090811536 
  987000   -1793831.7     12056.49   -754.09867     77.00853    88.922483    81.249922    1600.5949  0.035796761  0.037617486   0.04252273   0.11593698   0.02803961  0.029669349  0.032700814  0.090409773 
  988000   -1793868.8    12078.555   -972.75737     77.00853    88.922483    81.249922    1603.5242   0.03518165  0.037281677   0.04351469   0.11597802  0.027868046  0.029286895  0.034027805  0.091182746 
  989000   -1793891.1    12010.245   -1056.2201     77.00853    88.922483    81.249922    1594.4555  0.036018517   0.03740488  0.043254198   0.11667759  0.028719597  0.028968652  0.033337565  0.091025814 
  990000   -1793814.6    12052.938    -822.6195     77.00853    88.922483    81.249922    1600.1233  0.035606609  0.037541273  0.044205659   0.11735354  0.028715655   0.02871963  0.033859529  0.091294815 
  991000   -1793943.2    12035.791   -845.63935     77.00853    88.922483    81.249922    1597.8469  0.034983557  0.038054538  0.044755459   0.11779355  0.028525741  0.029717238  0.033914353  0.092157332 
  992000   -1793777.7    12053.206   -259.35263     77.00853    88.922483    81.249922    1600.1589  0.035136131   0.03768517  0.043659611   0.11648091  0.028574145  0.029006657   0.03392513  0.091505932 
  993000   -1793878.6    12087.514   -597.54008     77.00853    88.922483    81.249922    1604.7135  0.034328088   0.03822407  0.043464675   0.11601683  0.027815674  0.028923271  0.033980375   0.09071932 
  994000   -1793875.5     12047.47   -582.86883     77.00853    88.922483    81.249922    1599.3974  0.035665757  0.038384856  0.043342604   0.11739322  0.028907364  0.029402169  0.033208902  0.091518435 
  995000   -1793839.6    12032.533   -207.09809     77.00853    88.922483    81.249922    1597.4144  0.035346369   0.03786379  0.045106125   0.11831628  0.028056658  0.029270437  0.034237683  0.091564779 
  996000   -1793885.3    12032.077   -761.12322     77.00853    88.922483    81.249922    1597.3539  0.035855319  0.037176759  0.043892594   0.11692467  0.028794563  0.028782899  0.033620997  0.091198459 
  997000   -1793839.6    12034.055   -594.14159     77.00853    88.922483    81.249922    1597.6164  0.035420066  0.037882118  0.044771073   0.11807326  0.027779697  0.028895187   0.03405929  0.090734174 
  998000   -1793968.7    12092.391   -1501.5934     77.00853    88.922483    81.249922     1605.361  0.034808282  0.037490822  0.043907379   0.11620648  0.027931157  0.029391133  0.034327958  0.091650248 
  999000   -1793872.1    12074.084   -439.68163     77.00853    88.922483    81.249922    1602.9306  0.035724242  0.037456224  0.043568268   0.11674873  0.028861621  0.029219335  0.032842618  0.090923574 
 1000000   -1793890.3    12018.659   -1192.1617     77.00853    88.922483    81.249922    1595.5725  0.035236114  0.037449401   0.04442798   0.11711349  0.028333708  0.029548702  0.034044793  0.091927203 
Loop time of 119551 on 15 procs for 1000000 steps with 58275 atoms

Pair  time (%) = 86393.3 (72.2645)
Kspce time (%) = 28870.1 (24.1487)
Neigh time (%) = 1653.62 (1.38319)
Comm  time (%) = 1863.78 (1.55898)
Outpt time (%) = 1.84291 (0.00154152)
Other time (%) = 768.809 (0.643078)

Nlocal:    3885 ave 3921 max 3819 min
Histogram: 3 0 0 0 1 1 1 2 3 4
Nghost:    18524.1 ave 18662 max 18379 min
Histogram: 3 2 1 0 0 0 3 3 0 3
Neighs:    1.49233e+06 ave 1.53114e+06 max 1.43799e+06 min
Histogram: 1 0 1 3 1 1 2 2 1 3

Total # of neighbors = 22384988
Ave neighs/atom = 384.127
Neighbor list builds = 26911
Dangerous builds = 0
