

variable      mytemp equal  1600

# -------------------- FORCE FIELDS ----------------------
pair_style buck/coul/long 10.0 10.0

read_data	NPT_relaxed_1600.data
  orthogonal box = (0.13402 0.154754 0.141401) to (77.167 89.1054 81.4171)
  1 by 5 by 3 MPI processor grid
  reading atoms ...
  58365 atoms
  reading velocities ...
  58365 velocities

pair_coeff    * * 1e-30 1e-30 0.0
pair_coeff    1 2 1204.18 0.3165   0.0
pair_coeff    1 1 9547.96 0.21916  32.0

kspace_style    pppm 0.0001

## Define group
group oxygen type 1
35019 atoms in group oxygen
group chromium type 2
23346 atoms in group chromium


## --------------------- NVT  --------------------
compute allmsd all displace/atom

#dump          2 all custom 25000  dump/dump id type xu yu zu c_allmsd[1] c_allmsd[2] c_allmsd[3] c_allmsd[4]
#dump          1 all xyz 25000 xyz/all.xyz
#dump_modify   1 element O Cr



compute   Omsd oxygen msd com yes
compute   Crmsd chromium msd com yes
variable  OMSDX equal "c_Omsd[1]"
variable  OMSDY equal "c_Omsd[2]"
variable  OMSDZ equal "c_Omsd[3]"
variable  OMSDAll equal "c_Omsd[4]"

variable  CrMSDX equal "c_Crmsd[1]"
variable  CrMSDY equal "c_Crmsd[2]"
variable  CrMSDZ equal "c_Crmsd[3]"
variable  CrMSDAll equal "c_Crmsd[4]"

thermo          1000
thermo_style    custom step pe ke press lx ly lz temp c_Omsd[1]  c_Omsd[2]  c_Omsd[3]  c_Omsd[4]  c_Crmsd[1]  c_Crmsd[2]  c_Crmsd[3]  c_Crmsd[4]


fix          1 all print 100 "${OMSDX}   ${OMSDY}   ${OMSDZ}  ${OMSDAll}  ${CrMSDX}   ${CrMSDY}   ${CrMSDZ}  ${CrMSDAll}" file MSD1600.data screen no
fix          3 all nvt temp ${mytemp} ${mytemp} 0.01
fix          3 all nvt temp 1600 ${mytemp} 0.01
fix          3 all nvt temp 1600 1600 0.01

run      1000000
PPPM initialization ...
  G vector (1/distance) = 0.308944
  grid = 72 80 75
  stencil order = 5
  estimated absolute RMS force accuracy = 0.00178406
  estimated relative force accuracy = 0.000123896
  using double precision FFTs
  3d grid and FFT values/proc = 58144 28800
Memory usage per processor = 12.6298 Mbytes
Step PotEng KinEng Press Lx Ly Lz Temp Omsd[1] Omsd[2] Omsd[3] Omsd[4] Crmsd[1] Crmsd[2] Crmsd[3] Crmsd[4] 
       0   -1796557.2     12103.96    -1787.096    77.032961    88.950692    81.275698     1604.419 5.0825899e-29 2.111198e-29 5.1034946e-29 1.2297283e-28 5.0813644e-29            0 5.0962861e-29 1.0177651e-28 
    1000   -1796562.8    12083.314   -1912.8345    77.032961    88.950692    81.275698    1601.6823  0.031558954  0.029888549  0.041267751   0.10271525  0.025577531  0.024578442  0.033278191  0.083434164 
    2000   -1796568.7    12131.562   -1588.8441    77.032961    88.950692    81.275698    1608.0778  0.031259007  0.030595457  0.040849373   0.10270384  0.025215371  0.024512922   0.03172992  0.081458213 
    3000   -1796560.7    12064.462   -1654.7348    77.032961    88.950692    81.275698    1599.1834   0.03264752  0.030112825  0.042313331   0.10507368  0.025217178  0.023961498  0.032927353  0.082106028 
    4000   -1796582.3    12064.745   -1771.6788    77.032961    88.950692    81.275698    1599.2208  0.033232326  0.030496883  0.041700253   0.10542946   0.02611153  0.023806754  0.032227681  0.082145965 
    5000   -1796621.4     12079.47   -1563.7554    77.032961    88.950692    81.275698    1601.1728  0.031656342  0.031085848  0.041066429   0.10380862  0.024044731  0.024219074  0.030750709  0.079014514 
    6000   -1796623.5    12076.897   -2248.1276    77.032961    88.950692    81.275698    1600.8317  0.032510143  0.032090849  0.045748782   0.11034977  0.024610308  0.023764787  0.034456984  0.082832079 
    7000   -1796581.1     12041.58   -1795.7982    77.032961    88.950692    81.275698    1596.1504  0.033670882  0.031830719  0.042733301    0.1082349  0.024532585  0.023868731  0.031323854   0.07972517 
    8000   -1796543.4    12109.434   -1389.9027    77.032961    88.950692    81.275698    1605.1445   0.03504174  0.032748903  0.047665205   0.11545585  0.025377998  0.024640031  0.035646895  0.085664924 
    9000   -1796565.7    12061.065   -1432.9815    77.032961    88.950692    81.275698    1598.7331  0.034486931  0.033426073  0.044408237   0.11232124  0.024320899  0.024712374  0.031698811  0.080732084 
   10000   -1796554.9    11966.159   -1708.9067    77.032961    88.950692    81.275698     1586.153  0.034229213  0.032356283  0.045814914   0.11240041  0.024545243  0.023645435  0.032433786  0.080624463 
   11000   -1796510.6    12037.427   -1440.7117    77.032961    88.950692    81.275698    1595.5999  0.035479416  0.033040594  0.045519489    0.1140395  0.025641979  0.023757678  0.032580894  0.081980551 
   12000   -1796569.2    12051.124   -1726.4852    77.032961    88.950692    81.275698    1597.4154  0.033730985  0.033383736  0.044593414   0.11170814   0.02341229  0.024071784  0.031449229  0.078933302 
   13000   -1796505.6     12056.05   -1641.1595    77.032961    88.950692    81.275698    1598.0684   0.03534378   0.03303489  0.048422438   0.11680111  0.025133691  0.023831739  0.034905897  0.083871327 
   14000   -1796547.9    12054.499   -1285.0543    77.032961    88.950692    81.275698    1597.8628   0.03575804  0.033134317  0.045496149   0.11438851  0.024502345  0.023480113  0.030905442    0.0788879 
   15000   -1796557.5    12038.842   -1721.5133    77.032961    88.950692    81.275698    1595.7874  0.036045342  0.034122404   0.04757086   0.11773861  0.025397841  0.024187474  0.032885529  0.082470844 
   16000   -1796525.1    12022.074   -1222.5816    77.032961    88.950692    81.275698    1593.5648  0.035607825  0.034063473   0.04594764   0.11561894  0.024545106  0.024204926  0.031976933  0.080726966 
   17000     -1796618    12115.787   -1875.9231    77.032961    88.950692    81.275698    1605.9867  0.034801105  0.033692231  0.045615765    0.1141091  0.023329694  0.023209189  0.032023815  0.078562698 
   18000     -1796520    11982.737   -1719.4488    77.032961    88.950692    81.275698    1588.3505  0.036744485  0.034816103  0.047812271   0.11937286  0.025025868  0.024744041  0.032985141  0.082755051 
   19000     -1796550    11970.896   -2279.3488    77.032961    88.950692    81.275698     1586.781  0.035495617  0.034983492  0.046353373   0.11683248  0.024001689  0.023951207  0.031330605  0.079283501 
   20000   -1796577.7    12073.751   -1645.2565    77.032961    88.950692    81.275698    1600.4147  0.036178491  0.034271264  0.048786902   0.11923666  0.025149946  0.024131835  0.034120801  0.083402583 
   21000   -1796562.4    11981.665   -1947.6649    77.032961    88.950692    81.275698    1588.2084  0.035048389  0.034808497   0.04688518   0.11674207  0.024023458  0.024271522  0.032103134  0.080398115 
   22000   -1796557.3    12018.324   -2022.3774    77.032961    88.950692    81.275698    1593.0676  0.035494142  0.034474147  0.048842157   0.11881045  0.024370259  0.023860631  0.033932795  0.082163685 
   23000   -1796500.3    12016.623   -1033.2229    77.032961    88.950692    81.275698    1592.8422  0.036240124  0.035670199  0.046882521   0.11879284  0.024989965  0.024411253  0.032670306  0.082071524 
   24000   -1796548.9    12051.846   -1420.8303    77.032961    88.950692    81.275698    1597.5112  0.035661333  0.035671946  0.047537527   0.11887081  0.024248969  0.024342267  0.031970927  0.080562163 
   25000   -1796638.5    12100.517   -2027.3874    77.032961    88.950692    81.275698    1603.9626  0.037091998  0.036175167  0.050846839     0.124114  0.024573101  0.024440493  0.035151878  0.084165472 
   26000   -1796507.8    12085.926   -1514.2618    77.032961    88.950692    81.275698    1602.0285  0.037635141  0.035225992  0.048569668    0.1214308  0.025120385  0.023552782  0.032628455  0.081301622 
   27000   -1796609.6    12078.453   -1667.4617    77.032961    88.950692    81.275698     1601.038  0.036997913  0.035498975  0.049566791   0.12206368  0.024252161  0.023812217  0.034540772   0.08260515 
   28000   -1796562.1    12022.246   -2081.7091    77.032961    88.950692    81.275698    1593.5875  0.037391786  0.036887331  0.051353749   0.12563287  0.024377329  0.024479248  0.033880757  0.082737335 
   29000   -1796664.8    12068.023   -2321.2715    77.032961    88.950692    81.275698    1599.6554  0.037103524  0.037686103  0.051748576    0.1265382  0.024393552  0.024405974  0.034297779  0.083097304 
   30000     -1796562    12054.895   -2021.7813    77.032961    88.950692    81.275698    1597.9152  0.037850549  0.037123773  0.051109327   0.12608365  0.024853828  0.024410533  0.033201109  0.082465471 
   31000   -1796629.7     12039.02   -2387.6479    77.032961    88.950692    81.275698    1595.8109  0.037519351  0.036913648  0.052592434   0.12702543  0.024094789  0.024619198  0.035607344  0.084321331 
   32000   -1796590.7    12048.838   -2731.6579    77.032961    88.950692    81.275698    1597.1123  0.038778745  0.037454118  0.052007842    0.1282407  0.024977802  0.024924355  0.034980336  0.084882492 
   33000     -1796529    12078.739   -1845.8859    77.032961    88.950692    81.275698    1601.0759  0.039161125  0.036632414  0.053365747   0.12915929  0.025217349  0.023498152  0.034339669   0.08305517 
   34000   -1796563.3    12098.935   -1462.9363    77.032961    88.950692    81.275698    1603.7529  0.038895513  0.037801269  0.052822851   0.12951963  0.024750204  0.024682134  0.034509277  0.083941615 
   35000   -1796580.2    12036.266    -2250.146    77.032961    88.950692    81.275698    1595.4459  0.038925738  0.038604492  0.053192489   0.13072272  0.024147947  0.025379665   0.03523036  0.084757972 
   36000   -1796628.4    12015.484   -1918.6581    77.032961    88.950692    81.275698    1592.6913  0.039141154  0.036996678  0.052319838   0.12845767  0.024884395  0.024262547  0.034100777  0.083247719 
   37000   -1796586.8    12031.234   -2250.4376    77.032961    88.950692    81.275698    1594.7789  0.038855683  0.038191441  0.052224313   0.12927144  0.024196549  0.024917774  0.034315784  0.083430107 
   38000   -1796584.7    12145.396   -1575.1258    77.032961    88.950692    81.275698    1609.9114  0.040141046  0.037771477  0.052340612   0.13025314  0.025274734  0.024533498   0.03426168  0.084069912 
   39000   -1796508.2    12091.704   -1541.1937    77.032961    88.950692    81.275698    1602.7944  0.040900098  0.038511003  0.052214883   0.13162598  0.025407602  0.024875866  0.034562513   0.08484598 
   40000     -1796560    12111.546    -1746.699    77.032961    88.950692    81.275698    1605.4246  0.039639869  0.038374508  0.052879091   0.13089347  0.023754965  0.023865851  0.033385447  0.081006264 
   41000   -1796602.2    12076.839   -2124.4153    77.032961    88.950692    81.275698     1600.824  0.039777051  0.038985892  0.053851343   0.13261429  0.024840393  0.024231894  0.034057053  0.083129339 
   42000   -1796548.1    12090.505   -1428.4158    77.032961    88.950692    81.275698    1602.6355  0.040854474  0.040647293   0.05475302   0.13625479  0.025022072  0.025167085  0.034566179  0.084755335 
   43000   -1796551.5    12101.386   -1489.0409    77.032961    88.950692    81.275698    1604.0778  0.040322297  0.039342328  0.054447232   0.13411186  0.024314768  0.023796802   0.03506187   0.08317344 
   44000   -1796526.7    12127.667   -1773.6076    77.032961    88.950692    81.275698    1607.5615  0.039981525  0.040210005  0.055343187   0.13553472  0.024366917  0.024876066  0.034669081  0.083912065 
   45000   -1796508.6     11977.77   -1024.3822    77.032961    88.950692    81.275698    1587.6921  0.041343854  0.040389684  0.055415885   0.13714942  0.025102395  0.024981324  0.034650633  0.084734352 
   46000   -1796624.5    12123.607   -2161.6982    77.032961    88.950692    81.275698    1607.0232  0.041320322  0.040203996  0.053284222   0.13480854  0.025296811  0.024515996  0.033866681  0.083679488 
   47000   -1796538.1    12046.097   -2037.8366    77.032961    88.950692    81.275698    1596.7491  0.041796223  0.039922091    0.0560573   0.13777561  0.024305053    0.0240347  0.035231574  0.083571327 
   48000   -1796594.5    12121.103   -1424.0572    77.032961    88.950692    81.275698    1606.6914  0.043595715  0.040370664  0.056444714   0.14041109  0.025855581  0.024131498  0.035564312  0.085551391 
   49000   -1796497.5    12115.735   -1494.4723    77.032961    88.950692    81.275698    1605.9798  0.042151417  0.041373522  0.056262858    0.1397878  0.024429119  0.024989111  0.034688804  0.084107033 
   50000   -1796553.2     12058.31   -1552.3282    77.032961    88.950692    81.275698    1598.3679  0.041619973  0.040404362  0.057977714   0.14000205   0.02437784  0.024245012  0.035369898   0.08399275 
   51000   -1796517.4    12055.414   -1652.6731    77.032961    88.950692    81.275698    1597.9841  0.044129915  0.041360161  0.058456813   0.14394689  0.025594559   0.02435052  0.035197645  0.085142725 
   52000   -1796557.2    12091.534   -1309.7586    77.032961    88.950692    81.275698    1602.7719  0.043111915  0.041367594  0.057294636   0.14177415  0.024859953  0.023903816  0.034560735  0.083324504 
   53000   -1796620.4    12103.149   -1921.0734    77.032961    88.950692    81.275698    1604.3115  0.043666612  0.042179224  0.059843839   0.14568968  0.024596564  0.023781296  0.035970329  0.084348189 
   54000   -1796586.8    12130.611   -1993.7321    77.032961    88.950692    81.275698    1607.9516  0.043762882  0.042052331  0.058771203   0.14458642  0.024039162  0.024330035  0.034979781  0.083348978 
   55000   -1796567.4    12098.207    -1907.323    77.032961    88.950692    81.275698    1603.6565  0.045205327  0.042299182  0.059012363   0.14651687   0.02550175  0.024130366  0.035502134   0.08513425 
   56000   -1796583.1    12069.504   -2000.0135    77.032961    88.950692    81.275698    1599.8517  0.044640853  0.042653911  0.059412707   0.14670747  0.024335329  0.024554441  0.037436692  0.086326463 
   57000   -1796591.4    12093.563   -2390.2112    77.032961    88.950692    81.275698    1603.0408  0.044404817  0.042698228  0.060327518   0.14743056  0.024815959  0.023790325  0.036425911  0.085032195 
   58000     -1796586    12054.225   -1671.4998    77.032961    88.950692    81.275698    1597.8264   0.04519075  0.042354047  0.060839975   0.14838477   0.02492132  0.023975219  0.036820523  0.085717061 
   59000   -1796673.7    12095.689   -2689.4979    77.032961    88.950692    81.275698    1603.3226  0.044322415  0.042633801  0.060900145   0.14785636  0.023681259  0.024281241  0.036994239  0.084956739 
   60000   -1796602.1    12046.291   -1689.6274    77.032961    88.950692    81.275698    1596.7748   0.04489294  0.042767021  0.060501214   0.14816118  0.024782328  0.024267204  0.036396459  0.085445991 
   61000   -1796527.2    12002.623   -1605.5704    77.032961    88.950692    81.275698    1590.9864  0.045069893  0.042772613    0.0587634   0.14660591  0.024750724  0.024076691  0.036399474   0.08522689 
   62000   -1796631.5    12122.252   -1829.9221    77.032961    88.950692    81.275698    1606.8437   0.04542366  0.043183011  0.060581832    0.1491885  0.024016721  0.024193412  0.036681275  0.084891409 
   63000   -1796500.2    12109.781   -1428.3527    77.032961    88.950692    81.275698    1605.1906  0.045823821    0.0424359   0.06057073   0.14883045  0.025382274  0.023679724  0.037244555  0.086306553 
   64000   -1796559.9    12053.681   -1905.4752    77.032961    88.950692    81.275698    1597.7544  0.045831847  0.042461868  0.060013732   0.14830745  0.024704664  0.023379975  0.037203769  0.085288407 
   65000   -1796536.9    12073.662   -1144.2088    77.032961    88.950692    81.275698    1600.4028  0.046053188  0.043811095  0.061724328   0.15158861  0.024516912  0.024712183  0.036848706  0.086077802 
   66000   -1796556.6    12026.675     -1997.01    77.032961    88.950692    81.275698    1594.1747  0.046070818  0.043897481  0.061058727   0.15102703  0.024321534  0.024145089  0.036937454  0.085404078 
   67000   -1796516.7     12054.97   -1790.1541    77.032961    88.950692    81.275698    1597.9252  0.046983831  0.043900466  0.061615924   0.15250022   0.02530523  0.024206991  0.037392617  0.086904838 
   68000   -1796528.2    12069.766   -1629.7286    77.032961    88.950692    81.275698    1599.8864  0.045732673  0.044126425  0.062301344   0.15216044  0.023743558  0.024253191  0.038439736  0.086436486 
   69000   -1796559.4    12054.937   -1993.6303    77.032961    88.950692    81.275698    1597.9208   0.04687466  0.044705879  0.061271007   0.15285155  0.025089187  0.024554007  0.036897044  0.086540238 
   70000   -1796577.5     12039.07   -2085.4678    77.032961    88.950692    81.275698    1595.8175  0.048303921  0.044275543  0.061037255   0.15361672  0.025461557  0.024625843  0.036594365  0.086681765 
   71000   -1796509.5    12122.043   -1634.4323    77.032961    88.950692    81.275698     1606.816  0.046700039  0.044214084  0.060822761   0.15173688  0.024126798  0.023740889  0.035739034  0.083606722 
   72000   -1796559.1    12073.196   -1526.8886    77.032961    88.950692    81.275698    1600.3411  0.047227917  0.044920382    0.0629855    0.1551338  0.025067377  0.024368523  0.037352915  0.086788815 
   73000     -1796515    12047.071   -1312.4371    77.032961    88.950692    81.275698    1596.8781  0.047351003  0.045010425  0.060934433   0.15329586  0.024652815  0.024861912  0.035870911  0.085385637 
   74000   -1796558.5    12030.813   -1714.1724    77.032961    88.950692    81.275698    1594.7232  0.047394633  0.044279796  0.063993031   0.15566746  0.024497158  0.023630526  0.038153807  0.086281491 
   75000   -1796526.7    12042.664   -1536.1303    77.032961    88.950692    81.275698    1596.2939   0.04753352  0.045510406  0.063944215   0.15698814  0.024333701  0.024307312  0.038220076  0.086861089 
   76000   -1796612.9    12095.636   -2336.4715    77.032961    88.950692    81.275698    1603.3157  0.047795763  0.045134441  0.064153573   0.15708378  0.024451703  0.024025782  0.036682317  0.085159801 
   77000   -1796599.1    12141.814   -2204.8622    77.032961    88.950692    81.275698    1609.4366  0.048255931  0.045211633  0.062776994   0.15624456  0.024776099  0.024370677  0.036629729  0.085776505 
   78000   -1796636.1    12009.161   -2512.1791    77.032961    88.950692    81.275698    1591.8531  0.047221929  0.044905314  0.064006201   0.15613344   0.02441383  0.023825337  0.036534942   0.08477411 
   79000   -1796560.3    12096.109   -1787.1331    77.032961    88.950692    81.275698    1603.3783  0.048419249  0.045191376  0.063906127   0.15751675  0.024999036  0.024308369   0.03745563  0.086763035 
   80000   -1796605.5    12120.391   -1795.4065    77.032961    88.950692    81.275698     1606.597  0.048053719  0.045989785   0.06429499   0.15833849  0.024069993  0.024717801  0.037258966  0.086046761 
   81000   -1796548.9     12058.36   -2111.4575    77.032961    88.950692    81.275698    1598.3745     0.048501  0.045763867  0.065279005   0.15954387  0.024507651  0.023795072  0.038295819  0.086598541 
   82000   -1796572.6    12048.667   -2264.0958    77.032961    88.950692    81.275698    1597.0898  0.049736217  0.045779429  0.063302016   0.15881766  0.025641497   0.02394651  0.036622894  0.086210901 
   83000   -1796577.1    12086.915   -1545.5745    77.032961    88.950692    81.275698    1602.1596  0.048579653  0.046674537   0.06432544   0.15957963  0.024854697  0.024704609  0.037407078  0.086966385 
   84000     -1796524    12093.693   -1538.8809    77.032961    88.950692    81.275698    1603.0581  0.049791643  0.046460478  0.067573476    0.1638256  0.024959378  0.023604359  0.038244259  0.086807996 
   85000   -1796527.4    12067.843   -1583.0975    77.032961    88.950692    81.275698    1599.6316   0.05015498   0.04749361   0.06561021    0.1632588  0.025026577  0.023978333  0.037622101   0.08662701 
   86000   -1796630.5    12131.728   -1368.0972    77.032961    88.950692    81.275698    1608.0997  0.049777539  0.047306047  0.066621958   0.16370554  0.024754685  0.024227446  0.038005787  0.086987918 
   87000   -1796534.9    12080.397   -1842.2546    77.032961    88.950692    81.275698    1601.2956  0.050707393  0.048154579   0.06559253    0.1644545  0.024783357  0.024769343  0.036829068  0.086381767 
   88000     -1796628    12097.513   -1909.0512    77.032961    88.950692    81.275698    1603.5644  0.050445257  0.047928406  0.067188559   0.16556222   0.02453841  0.023911747  0.038126973   0.08657713 
   89000   -1796581.9      12135.8    -1354.587    77.032961    88.950692    81.275698    1608.6394  0.050643625  0.047787584  0.066647729   0.16507894  0.024376316  0.023527403   0.03748845   0.08539217 
   90000   -1796560.6    12071.881   -1620.8933    77.032961    88.950692    81.275698    1600.1669  0.051138364  0.049131168  0.067319186   0.16758872  0.024483134  0.024768551  0.039607568  0.088859252 
   91000   -1796569.5    12077.684   -1940.3341    77.032961    88.950692    81.275698     1600.936  0.051865891  0.047832669  0.067352317   0.16705088  0.025154183  0.023716669  0.038453736  0.087324588 
   92000   -1796555.5     12031.95   -1679.9904    77.032961    88.950692    81.275698    1594.8739  0.051045229  0.048169947   0.06736108   0.16657626  0.024484829  0.023886511  0.038934518  0.087305858 
   93000   -1796506.4    12080.721   -1557.8294    77.032961    88.950692    81.275698    1601.3386  0.051455333  0.049198579  0.068843869   0.16949778  0.024239077  0.024288296  0.038494415  0.087021788 
   94000   -1796539.6    12027.622   -2328.3716    77.032961    88.950692    81.275698    1594.3001    0.0522263  0.048559808  0.066621946   0.16740805  0.024770462  0.023441723  0.038491039  0.086703223 
   95000   -1796496.1    12083.848    -1535.801    77.032961    88.950692    81.275698     1601.753  0.052927968  0.049458925  0.068289459   0.17067635  0.025745922  0.024134102  0.039083018  0.088963042 
   96000   -1796530.5    12104.567   -1497.7868    77.032961    88.950692    81.275698    1604.4995  0.052152147  0.049312949  0.067853171   0.16931827  0.024584385  0.023629395  0.039580468  0.087794247 
   97000   -1796604.3    12078.143   -1397.2373    77.032961    88.950692    81.275698    1600.9968  0.052342774  0.050046486  0.068137139    0.1705264   0.02414846  0.025082455  0.038898798  0.088129713 
   98000   -1796580.6    12089.351   -1949.9898    77.032961    88.950692    81.275698    1602.4826  0.053587416  0.049413384  0.068136731   0.17113753  0.025735938  0.024342978   0.03938975  0.089468665 
   99000   -1796530.5    12101.115   -1185.7764    77.032961    88.950692    81.275698    1604.0419  0.053112749  0.050339538  0.069340679   0.17279297   0.02470072  0.024532001  0.039517031  0.088749751 
  100000   -1796499.8    12057.246   -1739.1262    77.032961    88.950692    81.275698    1598.2269  0.052877996  0.049696467  0.068939488   0.17151395  0.024187151  0.024869028  0.038831446  0.087887625 
  101000   -1796515.7    12067.994   -1846.1926    77.032961    88.950692    81.275698    1599.6516  0.054149334  0.049704664  0.069601971   0.17345597  0.025517621  0.024444682  0.040153881  0.090116184 
  102000   -1796583.1     12033.79   -1697.2336    77.032961    88.950692    81.275698    1595.1177  0.053264214  0.050326445  0.069415007   0.17300567  0.024585554  0.025220796  0.038391563  0.088197913 
  103000   -1796551.5     12126.69   -1617.5055    77.032961    88.950692    81.275698    1607.4319  0.053678677  0.049451359  0.069102959     0.172233  0.025457769  0.024599389  0.038558199  0.088615356 
  104000   -1796480.7    12026.684   -1913.3158    77.032961    88.950692    81.275698    1594.1758  0.054420077  0.050563259  0.070152896   0.17513623  0.024859275  0.024366714  0.038371013  0.087597003 
  105000     -1796572    12073.356   -1684.5624    77.032961    88.950692    81.275698    1600.3623  0.054823139  0.050406189  0.071447567   0.17667689  0.024980499  0.024210479  0.038090596  0.087281575 
  106000   -1796546.3      12041.8   -1604.4151    77.032961    88.950692    81.275698    1596.1795  0.054370953  0.052175249  0.071253055   0.17779926  0.024634131  0.024294425  0.038493059  0.087421615 
  107000   -1796642.2    12074.915   -2418.9158    77.032961    88.950692    81.275698     1600.569  0.054760273  0.051027439  0.072711548   0.17849926  0.024338369  0.024020203   0.03862664  0.086985212 
  108000   -1796556.4    12111.981   -2096.2759    77.032961    88.950692    81.275698    1605.4822  0.055808559   0.05091759  0.071027947    0.1777541  0.024660361   0.02415617   0.03746478  0.086281311 
  109000   -1796555.9    12094.034   -1226.4121    77.032961    88.950692    81.275698    1603.1032  0.055901085   0.05124234  0.072820523   0.17996395  0.024722843  0.024498275  0.039441964  0.088663082 
  110000   -1796610.6    12011.248   -1989.4721    77.032961    88.950692    81.275698    1592.1297  0.057871661  0.050697991  0.071983777   0.18055343  0.025035156  0.024035731  0.039125436  0.088196323 
  111000   -1796531.7    12087.913   -1680.9954    77.032961    88.950692    81.275698    1602.2919  0.057211283  0.052414384  0.073010609   0.18263628  0.024840706  0.023403063  0.039788109  0.088031878 
  112000   -1796597.9    12057.539   -1932.9245    77.032961    88.950692    81.275698    1598.2657  0.056825368  0.051321103  0.073848644   0.18199511  0.024531073  0.024011297  0.039560773  0.088103142 
  113000   -1796480.7    12062.547   -1586.1096    77.032961    88.950692    81.275698    1598.9296  0.057051003  0.053160896   0.07301605   0.18322795  0.024873905  0.024419324  0.041451625  0.090744854 
  114000   -1796560.1    12074.959    -1921.631    77.032961    88.950692    81.275698    1600.5748  0.056891232   0.05273543  0.072861403   0.18248806  0.024500964  0.024707678  0.038945069  0.088153712 
  115000   -1796538.8    12097.937   -1929.2653    77.032961    88.950692    81.275698    1603.6206  0.057525858  0.052266722   0.07335372    0.1831463   0.02505122  0.023857776  0.040397474   0.08930647 
  116000   -1796535.6    12100.773   -1425.4251    77.032961    88.950692    81.275698    1603.9965  0.057072141  0.052699809  0.073636307   0.18340826  0.024021906  0.024302967  0.039625069  0.087949942 
  117000   -1796518.3    12059.343   -1255.3906    77.032961    88.950692    81.275698    1598.5048  0.057444182  0.052514388  0.072828084   0.18278665   0.02438797  0.024301614  0.038604807   0.08729439 
  118000   -1796597.2    12146.048   -1774.8024    77.032961    88.950692    81.275698    1609.9979   0.05878765  0.052245087  0.074141572   0.18517431   0.02510005  0.023780723  0.039517963  0.088398735 
  119000   -1796528.6    12074.134     -1400.37    77.032961    88.950692    81.275698    1600.4655  0.058426115  0.053479968  0.074708188   0.18661427  0.024425695  0.024730436  0.040095378  0.089251509 
  120000   -1796621.5    12055.113   -2102.5925    77.032961    88.950692    81.275698    1597.9442  0.058190629  0.053650346  0.075246298   0.18708727  0.024245155  0.024875972   0.04048055  0.089601677 
  121000   -1796535.3    12139.987   -1594.7623    77.032961    88.950692    81.275698    1609.1945   0.05852692  0.054815423  0.074268481   0.18761082  0.024643532   0.02507075  0.039695536  0.089409818 
  122000   -1796579.5    12056.276   -1985.7082    77.032961    88.950692    81.275698    1598.0983  0.058730597  0.053687571  0.076400662   0.18881883  0.024457781  0.023938411  0.040889754  0.089285946 
  123000     -1796540    12013.134   -1511.4933    77.032961    88.950692    81.275698    1592.3797  0.057751197  0.053799781  0.074570014   0.18612099  0.024201816  0.024112406  0.039500567  0.087814789 
  124000   -1796605.8    12013.949    -1609.206    77.032961    88.950692    81.275698    1592.4877  0.058499531  0.054908363  0.075765528   0.18917342  0.025388153   0.02371531  0.041091103  0.090194566 
  125000   -1796560.4    12050.187   -1720.1624    77.032961    88.950692    81.275698    1597.2912  0.059489458  0.054115368  0.075926441   0.18953127  0.025228005  0.023768143   0.04147567  0.090471818 
  126000   -1796583.6    12075.406   -1672.2787    77.032961    88.950692    81.275698    1600.6341  0.059285614  0.054545453  0.076021655   0.18985272  0.025042836  0.024495901  0.040319499  0.089858236 
  127000   -1796538.5    12087.902   -1843.5106    77.032961    88.950692    81.275698    1602.2905  0.058955403  0.054249475  0.076794044   0.18999892  0.024467447  0.024271153  0.043164896  0.091903497 
  128000     -1796610    12143.914    -1756.046    77.032961    88.950692    81.275698     1609.715  0.059018149  0.055630121  0.075771809   0.19042008  0.024166861  0.024584785  0.040897265  0.089648912 
  129000   -1796467.5    12114.069    -1155.198    77.032961    88.950692    81.275698     1605.759  0.060780901  0.055352819  0.077480201   0.19361392  0.025750099  0.023869122   0.04276593  0.092385151 
  130000   -1796562.9     12046.61   -2177.3448    77.032961    88.950692    81.275698    1596.8171  0.060169412  0.054986077    0.0766852   0.19184069  0.024429856  0.023815275  0.041945776  0.090190907 
  131000     -1796500    12024.388   -1357.4375    77.032961    88.950692    81.275698    1593.8714  0.059358362  0.055820474  0.078374646   0.19355348  0.024084051  0.023603956  0.044233939  0.091921946 
  132000   -1796543.1    12058.857   -1933.8059    77.032961    88.950692    81.275698    1598.4405  0.060620008  0.056026712    0.0778782   0.19452492    0.0241328  0.023747277  0.042751789  0.090631866 
  133000   -1796555.2    12093.235   -891.88143    77.032961    88.950692    81.275698    1602.9973  0.060649879  0.056129776  0.078399723   0.19517938  0.024187627  0.024974539  0.042750545  0.091912711 
  134000   -1796597.7    12096.097   -2110.8945    77.032961    88.950692    81.275698    1603.3767  0.061108541  0.056253007  0.079419271   0.19678082  0.025161694   0.02384923  0.043342559  0.092353482 
  135000   -1796509.8    12044.534   -1116.5376    77.032961    88.950692    81.275698    1596.5419  0.062518513  0.057547076  0.078603366   0.19866896  0.024475193  0.025032527  0.042240138  0.091747858 
  136000   -1796539.9    12064.915   -1793.3777    77.032961    88.950692    81.275698    1599.2435  0.062396027  0.056580463  0.080851203   0.19982769  0.024105773  0.023964063  0.042920263  0.090990099 
  137000   -1796582.5    12054.144   -1562.4014    77.032961    88.950692    81.275698    1597.8158  0.062286467  0.057083773  0.080302745   0.19967298  0.024740354   0.02433477  0.041899796   0.09097492 
  138000     -1796513    12097.168   -1150.0137    77.032961    88.950692    81.275698    1603.5187  0.062912025  0.057604773   0.08047939   0.20099619  0.024664187  0.024565921  0.041458487  0.090688595 
  139000   -1796583.9    12055.951   -2272.4501    77.032961    88.950692    81.275698    1598.0553  0.063031995  0.057017052  0.080661146   0.20071019  0.024421546  0.023602402  0.041492769  0.089516716 
  140000   -1796610.8    11967.551   -1678.1569    77.032961    88.950692    81.275698    1586.3375  0.062976621  0.057032831  0.079957731   0.19996718  0.024293897  0.024297583  0.041161292  0.089752772 
  141000   -1796551.8    12132.042   -1616.8718    77.032961    88.950692    81.275698    1608.1414  0.063164815  0.057486226  0.081207437   0.20185848  0.024813254  0.023959869  0.042817771  0.091590894 
  142000   -1796505.7    12042.916    -1253.647    77.032961    88.950692    81.275698    1596.3274  0.064912451  0.057258017  0.082643387   0.20481386  0.026013788  0.023564824  0.042178672  0.091757284 
  143000   -1796557.4    12040.117   -1167.6424    77.032961    88.950692    81.275698    1595.9564  0.064195734  0.057507958  0.081455252   0.20315894   0.02515786  0.023796597  0.042299275  0.091253732 
  144000   -1796560.4    12137.746   -1870.7869    77.032961    88.950692    81.275698    1608.8974  0.063527657  0.058277297  0.081915675   0.20372063  0.024906395  0.023823544  0.042457884  0.091187823 
  145000   -1796558.1    12098.905   -1763.5563    77.032961    88.950692    81.275698    1603.7489  0.063788346  0.058045829   0.08211028   0.20394445  0.024391249  0.023904562  0.044346005  0.092641816 
  146000   -1796509.8    12060.811   -1741.0729    77.032961    88.950692    81.275698    1598.6995  0.063199038  0.058267775  0.081989517   0.20345633  0.024187908  0.023723797  0.042445174  0.090356879 
  147000   -1796615.9    12130.377   -1871.6519    77.032961    88.950692    81.275698    1607.9206  0.064027945  0.058237487  0.083196229   0.20546166  0.024603495  0.024010063  0.043700597  0.092314155 
  148000   -1796587.6    12047.067   -1764.8826    77.032961    88.950692    81.275698    1596.8777  0.064172855  0.059635779  0.083913036   0.20772167  0.024164759   0.02454952  0.042634372  0.091348651 
  149000   -1796529.8    12043.447   -1270.3589    77.032961    88.950692    81.275698    1596.3978  0.064094983  0.058085252  0.082196538   0.20437677  0.025306142  0.023570748  0.041400867  0.090277757 
  150000   -1796616.6    12122.142   -2034.2941    77.032961    88.950692    81.275698    1606.8291  0.063486333  0.058866275  0.083500847   0.20585345  0.024183197  0.024254864  0.043161073  0.091599133 
  151000   -1796549.2     12041.84   -1690.1774    77.032961    88.950692    81.275698    1596.1848  0.063866078  0.059463549  0.081889336   0.20521896   0.02441943  0.024647971  0.041002073  0.090069475 
  152000   -1796604.3    12074.142   -2024.0439    77.032961    88.950692    81.275698    1600.4665   0.06317758  0.059494816  0.082904416   0.20557681  0.024522772  0.023973279  0.042413791  0.090909841 
  153000   -1796574.7    12085.929   -1718.4702    77.032961    88.950692    81.275698    1602.0289  0.064085578  0.059153839  0.082439923   0.20567934  0.024664236  0.023747263  0.042469078  0.090880576 
  154000   -1796536.3    12121.822   -1662.7302    77.032961    88.950692    81.275698    1606.7867  0.064774387  0.059996598  0.084985445   0.20975643  0.024440886  0.024255808  0.042738134  0.091434828 
  155000   -1796584.1    12065.644   -1808.5686    77.032961    88.950692    81.275698    1599.3401  0.064605047  0.060012218  0.083071855   0.20768912  0.024865991  0.024252826  0.041650359  0.090769176 
  156000   -1796596.1    12042.014   -1686.9403    77.032961    88.950692    81.275698    1596.2078  0.064617479  0.060271148   0.08490121   0.20978984  0.024200007  0.024164878  0.042639883  0.091004768 
  157000   -1796605.3    12102.561   -1895.0449    77.032961    88.950692    81.275698    1604.2335  0.064519425  0.060614426  0.084605569   0.20973942  0.024605198  0.024327084  0.041703528   0.09063581 
  158000   -1796625.8    12099.675   -1968.4496    77.032961    88.950692    81.275698     1603.851  0.064997786  0.060983455  0.084696774   0.21067801  0.024105989  0.025215087  0.042600533  0.091921609 
  159000   -1796575.5    12082.821   -1983.8515    77.032961    88.950692    81.275698    1601.6169  0.065621989  0.060570081  0.086652732    0.2128448  0.024545858  0.023946689  0.043122684  0.091615232 
  160000   -1796572.1    12101.521   -1751.1793    77.032961    88.950692    81.275698    1604.0957  0.064944892  0.060628936  0.084936731   0.21051056  0.024274336   0.02360915  0.040972536  0.088856022 
  161000     -1796560    12061.336   -1732.3776    77.032961    88.950692    81.275698     1598.769  0.065892784  0.061131358  0.086574737   0.21359888  0.025419906  0.024212127  0.041968828  0.091600861 
  162000   -1796528.3    12068.102   -1497.0764    77.032961    88.950692    81.275698    1599.6659  0.065444961  0.061143108  0.085454449   0.21204252  0.024704176  0.024131784  0.041637403  0.090473363 
  163000   -1796633.3    12072.905     -1963.61    77.032961    88.950692    81.275698    1600.3025  0.066672408  0.061043081  0.086001645   0.21371713  0.025030896   0.02413103  0.041843756  0.091005682 
  164000   -1796590.3    12042.375   -2013.4207    77.032961    88.950692    81.275698    1596.2557  0.065722733  0.061936431  0.086477824   0.21413699  0.024129694  0.024151092  0.042081005  0.090361791 
  165000   -1796543.2    12208.375   -1467.1633    77.032961    88.950692    81.275698    1618.2595  0.066364751  0.061958692  0.086820706   0.21514415  0.024494578  0.024277725  0.041556442  0.090328746 
  166000   -1796505.1    12036.218   -1648.6476    77.032961    88.950692    81.275698    1595.4396  0.066177101  0.062102689  0.086806261   0.21508605  0.024590235  0.024410414  0.041756177  0.090756826 
  167000   -1796572.2    12086.634   -1734.5995    77.032961    88.950692    81.275698    1602.1224  0.065129831  0.061643396  0.086202862   0.21297609  0.024014467  0.024198952  0.040408659  0.088622078 
  168000   -1796623.9    12053.411   -1583.2906    77.032961    88.950692    81.275698    1597.7186  0.067089533  0.062269602  0.087761941   0.21712108  0.024597494  0.024459733   0.04123152  0.090288747 
  169000   -1796499.8    12114.258   -1198.3401    77.032961    88.950692    81.275698     1605.784  0.065728651  0.062093094  0.086777117   0.21459886  0.024081882  0.023554426  0.040274257  0.087910565 
  170000   -1796628.7    12088.562   -2319.9347    77.032961    88.950692    81.275698     1602.378  0.066457901  0.063221007  0.087226649   0.21690556  0.024297223  0.024333745  0.040898677  0.089529645 
  171000   -1796501.9    12062.192   -1598.8386    77.032961    88.950692    81.275698    1598.8825  0.066518159   0.06310143  0.087863971   0.21748356  0.024693003  0.024820004  0.041540914  0.091053921 
  172000   -1796555.8    12096.354   -1565.5226    77.032961    88.950692    81.275698    1603.4108   0.06677827  0.062732102  0.086769068   0.21627944  0.024545314  0.024132837  0.041489558  0.090167708 
  173000   -1796597.1    12020.922   -1758.2062    77.032961    88.950692    81.275698     1593.412   0.06780713  0.063267663  0.087891672   0.21896647  0.024999235  0.024380944  0.041840656  0.091220835 
  174000   -1796644.8    12025.253   -2399.7016    77.032961    88.950692    81.275698    1593.9861  0.066731838  0.063613476  0.085883528   0.21622884  0.024379178  0.024763732  0.040274573  0.089417483 
  175000   -1796505.6    12064.801   -1226.1484    77.032961    88.950692    81.275698    1599.2283  0.067975741  0.063710757  0.086961919   0.21864842  0.024793092  0.025377723  0.041008601  0.091179416 
  176000   -1796578.4    12004.746   -1880.1543    77.032961    88.950692    81.275698    1591.2679  0.068518725   0.06284314  0.087004381   0.21836625  0.025611077  0.023858356  0.040933139  0.090402572 
  177000   -1796643.5    12091.718   -2291.3098    77.032961    88.950692    81.275698    1602.7963  0.067417145  0.063512973  0.086030644   0.21696076  0.024017381  0.024580694  0.040210676  0.088808751 
  178000   -1796533.7    12135.397   -1798.7626    77.032961    88.950692    81.275698     1608.586  0.067225375  0.063605642  0.087730012   0.21856103  0.024123701  0.024701692  0.040923181  0.089748574 
  179000   -1796604.8    12012.598   -2098.3531    77.032961    88.950692    81.275698    1592.3086   0.06738263  0.063240138  0.086064637    0.2166874  0.024078248  0.023864763  0.039984433  0.087927444 
  180000   -1796508.1    12033.801   -1589.9332    77.032961    88.950692    81.275698    1595.1192   0.06977652  0.063582058  0.088914872   0.22227345  0.025638368  0.024380726  0.040905892  0.090924986 
  181000   -1796538.2    12057.342    -1918.048    77.032961    88.950692    81.275698    1598.2396  0.069070388  0.064415804  0.088129521   0.22161571  0.024382065  0.024291928  0.039793424  0.088467418 
  182000   -1796582.3    12016.855   -1590.2927    77.032961    88.950692    81.275698     1592.873  0.068157037  0.063981025  0.089406561   0.22154462  0.023340348  0.024002677  0.041555731  0.088898757 
  183000     -1796546    12041.979   -1740.1095    77.032961    88.950692    81.275698    1596.2032  0.068602981  0.064626987  0.089688499   0.22291847  0.024342784  0.023461065  0.042189156  0.089993006 
  184000     -1796614    12104.972   -2109.5874    77.032961    88.950692    81.275698    1604.5531  0.068852242  0.065755284  0.088679679    0.2232872  0.024394204  0.024994844  0.041240473  0.090629521 
  185000     -1796618    12090.109   -1855.3947    77.032961    88.950692    81.275698    1602.5829  0.069121846  0.066192835  0.089107778   0.22442246  0.024459239   0.02517833  0.040485698  0.090123266 
  186000   -1796623.3    12037.385   -2062.3479    77.032961    88.950692    81.275698    1595.5943  0.067903714  0.065258431  0.090248581   0.22341073   0.02377977  0.024164143  0.041371521  0.089315433 
  187000   -1796574.4    12081.529   -1978.3363    77.032961    88.950692    81.275698    1601.4457  0.068996231  0.064789891  0.089167635   0.22295376  0.024387157   0.02363614  0.040419596  0.088442894 
  188000   -1796601.9    11983.394   -1966.5508    77.032961    88.950692    81.275698    1588.4376   0.06906828  0.065689098  0.091300222    0.2260576  0.024401504  0.024163743  0.040347558  0.088912806 
  189000   -1796511.3    12039.076   -1745.7475    77.032961    88.950692    81.275698    1595.8185  0.069318721  0.065403219  0.091315918   0.22603786  0.024009779  0.023538727  0.041104089  0.088652595 
  190000   -1796612.3    12039.503   -1925.2579    77.032961    88.950692    81.275698     1595.875  0.068680829  0.066135638  0.091667252   0.22648372  0.023931444   0.02501957  0.041213069  0.090164084 
  191000   -1796491.6    12048.177   -1116.3206    77.032961    88.950692    81.275698    1597.0248  0.069156024  0.065835863  0.090181773   0.22517366  0.024115469  0.024374433  0.041184382  0.089674283 
  192000   -1796550.3    12056.743   -1830.1584    77.032961    88.950692    81.275698    1598.1602   0.07030774  0.065950829  0.092138191   0.22839676  0.024904171   0.02390587  0.042251194  0.091061234 
  193000   -1796605.1    12086.145   -1938.7392    77.032961    88.950692    81.275698    1602.0576   0.06994149  0.066382402  0.091840895   0.22816479  0.024137473  0.023607646  0.041686177  0.089431295 
  194000   -1796640.5    12078.809   -1957.5136    77.032961    88.950692    81.275698    1601.0851  0.069917791  0.066086856  0.091957159   0.22796181  0.023826641  0.023732791  0.041213463  0.088772894 
  195000   -1796529.2    12000.559   -1416.1193    77.032961    88.950692    81.275698    1590.7128  0.070655767  0.067629666  0.091173683   0.22945912  0.024348453  0.024658604  0.042749134  0.091756192 
  196000     -1796524    12046.229   -1580.2992    77.032961    88.950692    81.275698    1596.7665  0.070249567  0.067099873  0.091588878   0.22893832  0.023991327  0.024423334   0.04263579   0.09105045 
  197000   -1796573.5    12107.814   -1970.5591    77.032961    88.950692    81.275698    1604.9298   0.06992536  0.067224226  0.092674658   0.22982425  0.024732563  0.024306325  0.042809552  0.091848441 
  198000   -1796563.4    12060.007   -1830.8207    77.032961    88.950692    81.275698    1598.5928  0.070362788  0.068683407  0.092079246   0.23112544   0.02408722  0.025326337  0.042223547  0.091637104 
  199000   -1796579.9    12035.377   -2209.8597    77.032961    88.950692    81.275698    1595.3281  0.069981611  0.066517369  0.092556355   0.22905533  0.024430928  0.023779618  0.042409111  0.090619657 
  200000   -1796619.8    12053.568   -1462.2475    77.032961    88.950692    81.275698    1597.7393  0.070270384  0.067483603  0.092918125   0.23067211  0.024405514  0.024061062  0.043166184   0.09163276 
  201000   -1796561.2    12053.726   -1796.1139    77.032961    88.950692    81.275698    1597.7602  0.070987835  0.067598041  0.092643263   0.23122914  0.024033879  0.024583881  0.043487011  0.092104772 
  202000   -1796575.1    12197.641   -1917.1658    77.032961    88.950692    81.275698    1616.8368  0.071415944   0.06722072  0.091937503   0.23057417  0.024927086  0.024289729  0.043208829  0.092425644 
  203000   -1796540.7    12000.592   -2064.2313    77.032961    88.950692    81.275698    1590.7172    0.0706489  0.067709085  0.093045306   0.23140329  0.024125151  0.024542481  0.045000236  0.093667867 
  204000   -1796535.9    12047.864   -1819.1889    77.032961    88.950692    81.275698    1596.9833  0.071414354  0.068022988   0.09334002   0.23277736  0.025191038  0.024957512  0.044010959   0.09415951 
  205000     -1796484    12057.811   -850.98539    77.032961    88.950692    81.275698    1598.3018  0.071450616  0.068403595  0.093172808   0.23302702  0.024553878  0.024616975  0.042348398   0.09151925 
  206000   -1796560.7    12088.744   -2023.1256    77.032961    88.950692    81.275698     1602.402  0.072059557  0.068146218  0.094386631   0.23459241  0.025028425  0.024907499  0.043354367  0.093290291 
  207000   -1796596.6    12024.282   -2124.1477    77.032961    88.950692    81.275698    1593.8573  0.072538141  0.068527356  0.095148158   0.23621365  0.025128656  0.024610682  0.043381328  0.093120666 
  208000   -1796493.2    12098.594   -1381.8543    77.032961    88.950692    81.275698    1603.7077  0.071843564  0.068755044  0.094463565   0.23506217  0.024081454  0.024940468   0.04355793  0.092579852 
  209000   -1796585.2     12139.72   -1532.9727    77.032961    88.950692    81.275698    1609.1591  0.073843272  0.068923821  0.094832688   0.23759978  0.026222818  0.024089696  0.044264781  0.094577295 
  210000   -1796481.5     12077.81   -1248.9537    77.032961    88.950692    81.275698    1600.9527  0.072810948  0.068947213  0.095333573   0.23709173  0.024472123  0.024533298  0.042640391  0.091645812 
  211000   -1796574.3    12016.926   -2328.1712    77.032961    88.950692    81.275698    1592.8823  0.073962048  0.068221476  0.095364043   0.23754757  0.024764038  0.024222552  0.042105564  0.091092154 
  212000   -1796582.2    12140.882    -1504.974    77.032961    88.950692    81.275698    1609.3131  0.072848723  0.068197849   0.09586264   0.23690921  0.024673169  0.023426613  0.043056636  0.091156418 
  213000     -1796496     12052.37    -1633.401    77.032961    88.950692    81.275698    1597.5805  0.072359057   0.06910454  0.096131462   0.23759506  0.023712705  0.024109214  0.043271901   0.09109382 
  214000   -1796551.1    12111.473   -1566.6045    77.032961    88.950692    81.275698    1605.4148  0.073573584  0.069467846  0.096627451   0.23966888   0.02492737  0.024745778   0.04351551  0.093188658 
  215000   -1796496.2    12043.972   -1570.0253    77.032961    88.950692    81.275698    1596.4674  0.074102626  0.068972781  0.095960653   0.23903606  0.024826719  0.024217262  0.042601269   0.09164525 
  216000   -1796612.9    12041.639   -1980.2932    77.032961    88.950692    81.275698    1596.1582  0.073886869  0.069555346   0.09547096   0.23891318  0.024450333   0.02433622  0.044283212  0.093069766 
  217000   -1796577.5    12074.773   -1921.6327    77.032961    88.950692    81.275698    1600.5502    0.0733762  0.069444012  0.097806203   0.24062642  0.024473581  0.024603567  0.044119712   0.09319686 
  218000   -1796595.9    12105.194   -1703.4695    77.032961    88.950692    81.275698    1604.5826  0.074230463  0.070000997  0.095770467   0.24000193  0.025117486  0.024900891  0.042546765  0.092565143 
  219000   -1796610.6    12151.654   -1805.8062    77.032961    88.950692    81.275698     1610.741  0.074387291  0.069531134  0.096986403   0.24090483  0.024816288  0.023888663  0.042742604  0.091447555 
  220000     -1796599    11981.769   -2005.5949    77.032961    88.950692    81.275698    1588.2221  0.074444267  0.069329115  0.097234076   0.24100746   0.02422589  0.024077409  0.042913994  0.091217293 
  221000     -1796596    12103.021   -1872.9056    77.032961    88.950692    81.275698    1604.2945  0.074286015  0.070348997  0.096238251   0.24087326  0.024836944  0.024582934  0.042056806  0.091476685 
  222000     -1796541    12114.697   -1600.9607    77.032961    88.950692    81.275698    1605.8422  0.075026587  0.069248792  0.096019374   0.24029475  0.025340117  0.023666148  0.042262489  0.091268754 
  223000   -1796686.6    12007.359   -2521.1261    77.032961    88.950692    81.275698    1591.6143  0.075063786  0.070341188  0.096177449   0.24158242  0.024922058  0.024044939  0.042297236  0.091264233 
  224000   -1796550.6    12068.266   -1406.5332    77.032961    88.950692    81.275698    1599.6877  0.074996114  0.070624754   0.09850314   0.24412401  0.023683266  0.024517152    0.0440771  0.092277518 
  225000     -1796469    12137.014   -608.84385    77.032961    88.950692    81.275698    1608.8005   0.07545039  0.069866261  0.097973443   0.24329009  0.024272683  0.023904471   0.04337298  0.091550134 
  226000   -1796645.3      12093.7   -2286.5596    77.032961    88.950692    81.275698     1603.059  0.075188674  0.069939934  0.098765457   0.24389407  0.024619474  0.023664762  0.044059626  0.092343862 
  227000   -1796604.2    12093.187   -2149.8888    77.032961    88.950692    81.275698     1602.991  0.075930445  0.069972473  0.098386059   0.24428898   0.02471867  0.024467006  0.043314046  0.092499723 
  228000     -1796539    12038.858   -1670.6718    77.032961    88.950692    81.275698    1595.7895  0.075878803  0.070850437  0.098656342   0.24538558  0.025353496  0.024290372  0.043152396  0.092796264 
  229000   -1796580.2    12088.072   -1553.3319    77.032961    88.950692    81.275698     1602.313  0.075654035  0.070621713  0.097827658   0.24410341  0.024498927  0.023880518  0.043538037  0.091917481 
  230000     -1796551    12101.364   -2187.8946    77.032961    88.950692    81.275698    1604.0749  0.075934303  0.071148782  0.097633752   0.24471684  0.024499603  0.024313343  0.043346019  0.092158965 
  231000   -1796556.6      12117.5   -1348.2389    77.032961    88.950692    81.275698    1606.2138  0.077022142   0.07173604    0.0992959   0.24805408  0.025152309  0.024357477  0.043517889  0.093027675 
  232000   -1796586.1    12118.458   -1603.9452    77.032961    88.950692    81.275698    1606.3407  0.076384866  0.071087572  0.099599588   0.24707203  0.024572873  0.023924923  0.043721464  0.092219259 
  233000   -1796591.6    12073.529   -2068.7218    77.032961    88.950692    81.275698    1600.3853  0.076905448  0.071093122  0.098039975   0.24603854    0.0238701   0.02398325  0.042651964  0.090505314 
  234000     -1796520    12098.563   -1758.7359    77.032961    88.950692    81.275698    1603.7036  0.078494519  0.072007583  0.099970241   0.25047234  0.025381694   0.02455233  0.043315129  0.093249153 
  235000   -1796643.3    12175.765   -2073.8793    77.032961    88.950692    81.275698     1613.937  0.077242088  0.072613563  0.099107627   0.24896328  0.024180015  0.024255163  0.042856451   0.09129163 
  236000   -1796499.9    12032.599   -1348.9983    77.032961    88.950692    81.275698    1594.9598  0.077732171  0.073153177   0.10220598   0.25309132  0.024277551  0.024324718  0.043492292   0.09209456 
  237000   -1796664.7    12066.911        -2443    77.032961    88.950692    81.275698     1599.508  0.078472527  0.073592995  0.099525592   0.25159111  0.025072135  0.024177925   0.04280117   0.09205123 
  238000   -1796686.2    12087.506   -2396.2578    77.032961    88.950692    81.275698     1602.238  0.078441111  0.073463872   0.10102621   0.25293119  0.024360671  0.024095161  0.043747037  0.092202869 
  239000   -1796607.3    12059.266   -1979.1723    77.032961    88.950692    81.275698    1598.4947  0.078877194  0.073179333   0.10011014   0.25216667  0.024684449  0.024188487  0.043472439  0.092345376 
  240000   -1796548.5    12026.168   -1942.8835    77.032961    88.950692    81.275698    1594.1074  0.077855288  0.073246215     0.100406    0.2515075  0.024713232  0.024690969  0.043360223  0.092764424 
  241000   -1796498.8    12019.358   -1692.6243    77.032961    88.950692    81.275698    1593.2047  0.078522212  0.073279353    0.1017333   0.25353487  0.025319152  0.024253907   0.04276009   0.09233315 
  242000   -1796563.3    12115.624   -1588.1363    77.032961    88.950692    81.275698     1605.965  0.077722014  0.073721804  0.099440548   0.25088437  0.024460237  0.024506375  0.042552619  0.091519231 
  243000   -1796537.5    12148.816   -1892.0778    77.032961    88.950692    81.275698    1610.3648  0.080445066  0.072694745  0.099781927   0.25292174  0.026256819  0.023963068  0.043670491  0.093890379 
  244000   -1796531.8    12041.175   -1738.4457    77.032961    88.950692    81.275698    1596.0967  0.078663397  0.074401219   0.10103682   0.25410144  0.024652679  0.024405421  0.041774473  0.090832574 
  245000   -1796656.2    12007.604   -2526.3986    77.032961    88.950692    81.275698    1591.6467  0.079603301  0.073316301   0.10236759   0.25528719  0.025114222   0.02443266  0.044937502  0.094484384 
  246000   -1796539.5     12109.58   -1855.8779    77.032961    88.950692    81.275698     1605.164  0.079441365  0.073437273   0.10008524   0.25296388  0.025690645  0.023908503  0.042192058  0.091791206 
  247000     -1796574    12106.093    -1360.904    77.032961    88.950692    81.275698    1604.7017  0.078698097  0.073798425   0.10182945   0.25432597  0.024441434  0.024316693  0.044176791  0.092934918 
  248000   -1796574.9    12071.996   -2173.4766    77.032961    88.950692    81.275698    1600.1821  0.079473652  0.073888975   0.10125614   0.25461876  0.025531124  0.024620014   0.04339007  0.093541209 
  249000   -1796554.2    12068.616   -1356.2835    77.032961    88.950692    81.275698     1599.734  0.079432076  0.072824972   0.10104382   0.25330087  0.024306905  0.023943428  0.044169637   0.09241997 
  250000   -1796585.3     12077.85   -1391.6581    77.032961    88.950692    81.275698     1600.958  0.080620732  0.072420085   0.10243223   0.25547305  0.025712583  0.024444424  0.044523331  0.094680339 
  251000   -1796530.9    12045.693   -1432.4789    77.032961    88.950692    81.275698    1596.6955  0.079104071  0.074247671   0.10187758   0.25522932  0.024262561  0.024872079  0.042898884  0.092033524 
  252000   -1796648.9    12056.378   -2008.7999    77.032961    88.950692    81.275698    1598.1118  0.079119229  0.073370921   0.10295742   0.25544757  0.024477054  0.024548666  0.045535449  0.094561169 
  253000   -1796609.9     12121.97   -2039.7577    77.032961    88.950692    81.275698    1606.8063  0.080923683  0.072469093   0.10200471   0.25539749  0.025323215  0.024168883  0.043763526  0.093255624 
  254000   -1796542.5    11994.195   -1800.3056    77.032961    88.950692    81.275698    1589.8693  0.079198027  0.073644573   0.10170705   0.25454965  0.023639047  0.024582788   0.04398002  0.092201856 
  255000     -1796578    12049.908   -1944.6665    77.032961    88.950692    81.275698    1597.2542  0.080729728  0.074537667   0.10135099   0.25661838   0.02575759  0.025279546  0.042361188  0.093398323 
  256000   -1796542.9    12098.082   -1321.6665    77.032961    88.950692    81.275698    1603.6399  0.079731501  0.073810504   0.10107464   0.25461665  0.024991633  0.024226375   0.04430347  0.093521479 
  257000   -1796524.5    12071.679   -1812.6994    77.032961    88.950692    81.275698      1600.14  0.080059048  0.074734932   0.10168012   0.25647411   0.02393289  0.024674609  0.043582748  0.092190248 
  258000     -1796517     12012.92   -1767.2685    77.032961    88.950692    81.275698    1592.3514  0.080722887  0.074267362   0.10257316   0.25756341  0.025371949  0.024510299  0.044746116  0.094628363 
  259000   -1796583.3    12133.457   -1288.7989    77.032961    88.950692    81.275698    1608.3289  0.080162604  0.074039257   0.10280607   0.25700793   0.02397939  0.023826945   0.04546361  0.093269945 
  260000   -1796570.7    12056.324   -1852.7507    77.032961    88.950692    81.275698    1598.1046  0.079194267  0.074240579   0.10288556   0.25632041  0.024935862  0.024431625  0.046626769  0.095994256 
  261000   -1796640.6    12094.973   -2007.4074    77.032961    88.950692    81.275698    1603.2277  0.080515585  0.075151037   0.10367746   0.25934408  0.024437244  0.024176872  0.046314569  0.094928686 
  262000   -1796555.9    12027.973   -1872.7112    77.032961    88.950692    81.275698    1594.3467   0.08128768  0.074875185   0.10391372   0.26007658  0.025103905   0.02410539  0.045663382  0.094872677 
  263000     -1796508    12125.109   -1541.7579    77.032961    88.950692    81.275698    1607.2223  0.081588798  0.076182179   0.10547716   0.26324813   0.02490317  0.024353383  0.047351364  0.096607917 
  264000   -1796593.3    12015.312   -1831.3856    77.032961    88.950692    81.275698    1592.6684  0.080811571  0.075856653   0.10260314   0.25927136   0.02468776  0.024549509  0.046347537  0.095584805 
  265000   -1796521.3    12119.646   -1415.6015    77.032961    88.950692    81.275698    1606.4982  0.082887183  0.075231353   0.10476052   0.26287905  0.026423305  0.024097852  0.047664603   0.09818576 
  266000   -1796574.7    12130.905   -1592.4927    77.032961    88.950692    81.275698    1607.9907  0.079933138  0.074589326   0.10303866   0.25756112  0.023861161  0.023465051  0.047192697  0.094518909 
  267000   -1796557.9     12084.39   -1731.6344    77.032961    88.950692    81.275698    1601.8249  0.080489448  0.076419783   0.10396719   0.26087643  0.024529961  0.024143209  0.047506253  0.096179422 
  268000   -1796559.9    12026.189   -1385.9482    77.032961    88.950692    81.275698    1594.1102  0.081286701  0.076077641   0.10393535   0.26129969  0.024966433  0.024863486  0.047961635  0.097791553 
  269000   -1796571.8    12092.778   -1718.3574    77.032961    88.950692    81.275698    1602.9368  0.081454387  0.075275297   0.10286811   0.25959779  0.024244682  0.023677127  0.045475521  0.093397331 
  270000   -1796547.2    12049.836   -1673.4606    77.032961    88.950692    81.275698    1597.2447  0.082469101  0.074999381   0.10356723   0.26103571  0.025307749  0.024492765  0.046024403  0.095824917 
  271000   -1796562.4     12089.91   -1437.8527    77.032961    88.950692    81.275698    1602.5566  0.081470539  0.075709906   0.10394255     0.261123   0.02426499  0.023852082  0.045832966  0.093950038 
  272000   -1796574.2    12043.607   -1898.2684    77.032961    88.950692    81.275698    1596.4189  0.081343758  0.076080542   0.10661607   0.26404037  0.024173512  0.024940094   0.04673561  0.095849216 
  273000   -1796544.8    12019.241   -1976.2174    77.032961    88.950692    81.275698    1593.1892  0.081986538  0.076784555   0.10503017   0.26380126  0.024293993  0.024731765  0.045551591   0.09457735 
  274000   -1796587.9    12027.021   -1500.0693    77.032961    88.950692    81.275698    1594.2205  0.082137928  0.076241883   0.10331776   0.26169757  0.025680725  0.024763685  0.045905221  0.096349631 
  275000     -1796528    12069.001   -1648.5335    77.032961    88.950692    81.275698     1599.785  0.081577063  0.077136521   0.10637956   0.26509314  0.024410842  0.024700503  0.046803631  0.095914976 
  276000   -1796566.9    12096.261   -1466.3643    77.032961    88.950692    81.275698    1603.3985  0.082031973  0.076101397   0.10380828   0.26194165  0.024426072  0.024173622  0.045793683  0.094393377 
  277000   -1796541.3    12020.568     -1473.59    77.032961    88.950692    81.275698    1593.3651   0.08353254  0.076795106   0.10595548   0.26628312  0.025820084  0.024149386  0.046421963  0.096391433 
  278000   -1796657.4    12130.129   -2161.2129    77.032961    88.950692    81.275698    1607.8878  0.082142747  0.076841107   0.10618188   0.26516574  0.023937341  0.024051766   0.04692988  0.094918987 
  279000   -1796604.5    12031.517   -1822.6667    77.032961    88.950692    81.275698    1594.8164  0.082222952   0.07581077   0.10692869   0.26496241  0.024023986  0.023653537  0.046752492  0.094430014 
  280000   -1796590.2    12136.701   -1264.3514    77.032961    88.950692    81.275698    1608.7589  0.083592893  0.075975571   0.10460954     0.264178  0.025414805  0.023555817  0.045615179  0.094585801 
  281000   -1796545.9    12077.507   -1783.5182    77.032961    88.950692    81.275698    1600.9125  0.082527537  0.077056632   0.10628321   0.26586738  0.024448442  0.024134449  0.045589658  0.094172549 
  282000   -1796582.5    12026.733   -1728.6975    77.032961    88.950692    81.275698    1594.1823    0.0829035  0.077613725   0.10599637    0.2665136  0.024586189  0.023746432  0.045867757  0.094200378 
  283000   -1796586.6    12096.001   -2154.3794    77.032961    88.950692    81.275698    1603.3639  0.083316957  0.077562715   0.10575691   0.26663658  0.024764071  0.023887193  0.045094906  0.093746171 
  284000     -1796627     12096.14   -1214.1614    77.032961    88.950692    81.275698    1603.3825  0.083318785  0.077119016   0.10586111   0.26629891  0.024844021  0.024159089  0.044647676  0.093650786 
  285000   -1796558.4    11987.907   -2269.2677    77.032961    88.950692    81.275698    1589.0358  0.082257257  0.077361731   0.10517728   0.26479627  0.024411677  0.023757809  0.044529003  0.092698488 
  286000   -1796588.3    12081.391   -1885.4725    77.032961    88.950692    81.275698    1601.4274  0.082650301  0.077187348   0.10519453   0.26503217  0.025123944  0.023633388  0.045327908   0.09408524 
  287000   -1796591.3    12074.886   -2104.2557    77.032961    88.950692    81.275698    1600.5652  0.083799713  0.077262745    0.1059112   0.26697366  0.025387828  0.023527839   0.04456149  0.093477156 
  288000   -1796516.4    12112.661   -1621.6774    77.032961    88.950692    81.275698    1605.5723  0.082733448  0.078335821    0.1060355   0.26710477  0.024227152  0.024180959  0.045191639  0.093599749 
  289000   -1796572.7    12127.403   -1680.4133    77.032961    88.950692    81.275698    1607.5265  0.083466022  0.078594464   0.10649821   0.26855869  0.024570355  0.024683146  0.045969075  0.095222576 
  290000   -1796516.6    12063.132   -1243.6969    77.032961    88.950692    81.275698    1599.0071  0.083801009  0.078213351   0.10573605   0.26775041  0.025096481  0.024170173  0.045291833  0.094558487 
  291000   -1796624.4    12072.534   -2133.5578    77.032961    88.950692    81.275698    1600.2534  0.084354251  0.077304681    0.1064912   0.26815013   0.02505418  0.023620867  0.046353141  0.095028188 
  292000   -1796593.3    12154.743   -1613.1244    77.032961    88.950692    81.275698    1611.1505  0.083345579  0.078456003   0.10708443   0.26888601  0.024617221  0.024649128  0.044795305  0.094061654 
  293000   -1796498.1    12091.285    -1544.491    77.032961    88.950692    81.275698    1602.7389  0.083778456  0.078330661   0.10699242   0.26910154  0.025365989  0.024281102  0.045950467  0.095597558 
  294000   -1796570.8    12113.403   -2187.7669    77.032961    88.950692    81.275698    1605.6707  0.083167614  0.077911761   0.10647591   0.26755528  0.024207186  0.023777453  0.045523809  0.093508448 
  295000   -1796552.8    12096.515   -1564.5717    77.032961    88.950692    81.275698    1603.4321  0.083997294  0.078879254   0.10804138   0.27091793  0.024721793  0.024226387  0.046305657  0.095253836 
  296000   -1796555.4    12149.198   -1281.1509    77.032961    88.950692    81.275698    1610.4155  0.085522461  0.078495488   0.10823582   0.27225377  0.025553184  0.024188321  0.046414407  0.096155912 
  297000   -1796536.7    12026.467    -1889.086    77.032961    88.950692    81.275698    1594.1471  0.082716386  0.078789035   0.10868045   0.27018587  0.024565511  0.024516117  0.045560255  0.094641883 
  298000   -1796549.3    12081.656   -1367.7367    77.032961    88.950692    81.275698    1601.4625  0.082630927  0.078506334   0.10804371   0.26918097  0.023916601  0.024408404  0.046914543  0.095239547 
  299000   -1796473.5    12098.884    -914.8613    77.032961    88.950692    81.275698    1603.7461  0.084693896  0.079169112   0.10648823   0.27035124  0.025563999  0.025141434  0.045328099  0.096033532 
  300000   -1796625.1    12096.435   -1562.7896    77.032961    88.950692    81.275698    1603.4216   0.08474691  0.079263271   0.10784553   0.27185571  0.025175466  0.024169314  0.043941435  0.093286215 
  301000   -1796558.3    12167.229   -995.11815    77.032961    88.950692    81.275698    1612.8055  0.084706898  0.080400594   0.10871091    0.2738184   0.02542199  0.024207936  0.045225198  0.094855123 
  302000   -1796579.2    12061.679   -1605.5408    77.032961    88.950692    81.275698    1598.8145   0.08557791  0.079620804   0.10782128   0.27301999  0.026119009  0.024586218  0.044449286  0.095154512 
  303000   -1796533.3    12051.308   -1401.0961    77.032961    88.950692    81.275698    1597.4398  0.084415136   0.07986837   0.10702561   0.27130911  0.024212677  0.023948039  0.044001609  0.092162325 
  304000   -1796530.8    12040.443   -1633.3571    77.032961    88.950692    81.275698    1595.9997  0.084642184  0.079429793    0.1074344   0.27150638  0.024750929  0.023755549  0.045722658  0.094229135 
  305000   -1796509.1    12018.398   -1338.6963    77.032961    88.950692    81.275698    1593.0774   0.08482092  0.079745475   0.10943203   0.27399843   0.02537737  0.023980983  0.045394087   0.09475244 
  306000   -1796549.2    12123.462   -1450.7446    77.032961    88.950692    81.275698     1607.004  0.084792433  0.080252635   0.10751667   0.27256174  0.024715389  0.024439409  0.044136479  0.093291277 
  307000   -1796582.5    12127.354   -1637.2029    77.032961    88.950692    81.275698    1607.5199  0.083706495  0.079946797    0.1093844    0.2730377  0.024703295  0.024492842  0.047538124  0.096734261 
  308000   -1796598.7    12071.138   -1835.1846    77.032961    88.950692    81.275698    1600.0684  0.083889757  0.079136572    0.1080566   0.27108293  0.025086821  0.023520026  0.044465838  0.093072685 
  309000   -1796602.3    12112.054   -1690.1536    77.032961    88.950692    81.275698    1605.4919  0.083701773  0.079922825   0.10901145   0.27263605  0.024021149  0.024022286  0.046613903  0.094657338 
  310000   -1796517.4    12057.023   -1434.5689    77.032961    88.950692    81.275698    1598.1974  0.083951298  0.080050597   0.10689584   0.27089773  0.024455303  0.024024423  0.044410862  0.092890589 
  311000     -1796595    12112.824   -1846.1519    77.032961    88.950692    81.275698    1605.5939   0.08630516  0.078813506   0.10973772   0.27485639  0.026310281  0.023815958  0.044841915  0.094968153 
  312000   -1796520.3    12003.155    -2214.418    77.032961    88.950692    81.275698     1591.057    0.0840488  0.080757288   0.10718895   0.27199504  0.024470651   0.02474554  0.044246956  0.093463148 
  313000   -1796594.5    12019.317   -1953.4057    77.032961    88.950692    81.275698    1593.1993  0.084171964  0.079692621   0.10821507   0.27207965  0.024076694  0.024294046  0.044831536  0.093202276 
  314000   -1796618.9    12111.992   -1557.0415    77.032961    88.950692    81.275698    1605.4836   0.08500359  0.079791801   0.10877395   0.27356934  0.026258684   0.02429285  0.045512808  0.096064342 
  315000   -1796581.7    12012.301   -2004.4339    77.032961    88.950692    81.275698    1592.2692  0.084044684  0.081210886   0.10817381   0.27342939  0.024771005  0.024249519  0.044365916   0.09338644 
  316000   -1796613.8    12060.267   -2199.1644    77.032961    88.950692    81.275698    1598.6273  0.084128109   0.08084546    0.1091651   0.27413867  0.024900359  0.024929578  0.044741475  0.094571412 
  317000   -1796518.8     12071.18    -1140.437    77.032961    88.950692    81.275698    1600.0739  0.084784689  0.080139778   0.10908457   0.27400904   0.02543094  0.025120111  0.043225965  0.093777016 
  318000   -1796479.5    12068.482   -1158.9572    77.032961    88.950692    81.275698    1599.7163  0.084076691  0.081302604   0.11008282   0.27546212  0.024737022  0.025044173   0.04406013  0.093841325 
  319000     -1796628    12121.335   -2368.5633    77.032961    88.950692    81.275698    1606.7221  0.085184809  0.079608602   0.11086449    0.2756579   0.02519808  0.024197568  0.045291359  0.094687008 
  320000   -1796573.9    12089.088   -1903.1994    77.032961    88.950692    81.275698    1602.4476  0.085459303  0.080495718   0.10898056   0.27493558  0.025251586  0.024045504  0.044481448  0.093778538 
  321000   -1796624.3    12040.154   -1722.3237    77.032961    88.950692    81.275698    1595.9613  0.085416472  0.081240301   0.11033406   0.27699084  0.026078166  0.024129555  0.047095557  0.097303279 
  322000   -1796526.7    12093.124   -1303.7781    77.032961    88.950692    81.275698    1602.9826  0.083929015  0.081842076   0.10971766   0.27548875  0.024007079  0.024774534  0.046935544  0.095717156 
  323000   -1796560.2    12055.678   -1866.4444    77.032961    88.950692    81.275698     1598.019  0.084542606  0.082132721   0.11111822   0.27779355  0.024086836  0.024786943   0.04726199  0.096135768 
  324000   -1796583.2    12005.823   -1347.4923    77.032961    88.950692    81.275698    1591.4106  0.087177258  0.082021475   0.11113492   0.28033366  0.026548844  0.025148295  0.046531535  0.098228674 
  325000   -1796579.1     12046.51    -1834.638    77.032961    88.950692    81.275698    1596.8039   0.08546533  0.082432852   0.11166237   0.27956055  0.024889228  0.024140733  0.046732484  0.095762446 
  326000   -1796605.6    12074.996   -1467.7106    77.032961    88.950692    81.275698    1600.5797  0.087065195  0.081499331   0.11267329   0.28123782  0.025919189  0.024370498  0.046774889  0.097064576 
  327000   -1796574.1    12114.334    -1731.019    77.032961    88.950692    81.275698    1605.7941  0.086885919  0.080986456   0.11252484   0.28039722  0.025666977  0.023930427  0.045354652  0.094952056 
  328000     -1796527     12016.15   -1803.6496    77.032961    88.950692    81.275698    1592.7795  0.085719661  0.081963229   0.11265413   0.28033702  0.024374337  0.024248557  0.046906335  0.095529229 
  329000   -1796610.4    12076.216    -1527.419    77.032961    88.950692    81.275698    1600.7414  0.086327408  0.083006449   0.11205117   0.28138503  0.025317027  0.024295308  0.046681304   0.09629364 
  330000   -1796546.7    12095.705   -1393.4382    77.032961    88.950692    81.275698    1603.3247  0.087132277  0.083139473   0.11269357   0.28296532  0.025705047  0.024347165  0.046653963  0.096706175 
  331000     -1796517    12043.509   -1273.8528    77.032961    88.950692    81.275698    1596.4061  0.087417935  0.084687314   0.11324389   0.28534914  0.024387418  0.024415382  0.047165004  0.095967804 
  332000   -1796577.7    12056.911   -1234.4471    77.032961    88.950692    81.275698    1598.1825  0.087001869  0.084872448   0.11458634   0.28646066  0.024556798  0.024493489  0.046932434  0.095982721 
  333000   -1796598.2     12053.71   -2050.5972    77.032961    88.950692    81.275698    1597.7582  0.086806392  0.083816941   0.11423822   0.28486155  0.024106187  0.024028328  0.046916622  0.095051137 
  334000   -1796536.9    12051.368   -1505.0821    77.032961    88.950692    81.275698    1597.4477  0.087958115  0.083954805   0.11456342   0.28647634  0.024893999  0.024517895  0.046816876  0.096228771 
  335000   -1796625.7     12134.87   -2426.0788    77.032961    88.950692    81.275698    1608.5162  0.088848134   0.08469513   0.11322008   0.28676335  0.024769136  0.024115146  0.045612201  0.094496483 
  336000   -1796519.6     12020.36   -1654.4993    77.032961    88.950692    81.275698    1593.3375  0.090573185  0.084230892   0.11308081   0.28788488  0.026642258  0.024829545  0.047383193  0.098854997 
  337000   -1796553.5    12129.695   -1279.8678    77.032961    88.950692    81.275698    1607.8302  0.087159556   0.08482184   0.11486621   0.28684761  0.023865953  0.024224014  0.047536621  0.095626588 
  338000   -1796475.4     12032.63   -1104.4191    77.032961    88.950692    81.275698     1594.964  0.088029269  0.084067195   0.11354361   0.28564008  0.024651176  0.024427613  0.046083321   0.09516211 
  339000   -1796540.5    12079.454   -1219.1479    77.032961    88.950692    81.275698    1601.1706   0.09064011  0.084446532   0.11520968   0.29029632  0.026883316  0.024388762  0.047553242   0.09882532 
  340000     -1796595    12064.248   -1844.4045    77.032961    88.950692    81.275698     1599.155  0.088528477   0.08526449   0.11513852   0.28893149  0.023852353  0.024088835   0.04852121  0.096462397 
  341000   -1796523.7    12031.488   -987.42869    77.032961    88.950692    81.275698    1594.8126  0.088312262  0.085553517   0.11379831   0.28766409  0.025104665   0.02489381  0.048381581  0.098380056 
  342000   -1796636.4    12072.175   -2313.7143    77.032961    88.950692    81.275698    1600.2057   0.08938625  0.083950894   0.11475754   0.28809468  0.024133253  0.023077042  0.047559974  0.094770269 
  343000   -1796545.4    12071.541   -1737.3678    77.032961    88.950692    81.275698    1600.1218  0.088426827  0.085223271   0.11391501   0.28756511  0.024202627  0.024750205  0.046865037  0.095817869 
  344000   -1796519.5     12078.78    -1325.563    77.032961    88.950692    81.275698    1601.0814  0.088994786  0.085242965   0.11505873   0.28929649  0.024657248  0.024765837  0.047388297  0.096811383 
  345000   -1796561.3     12031.11    -1921.399    77.032961    88.950692    81.275698    1594.7625  0.089543795  0.084923855   0.11461712   0.28908477  0.024190319  0.024151531  0.049405005  0.097746854 
  346000   -1796696.1      12073.5   -2338.8314    77.032961    88.950692    81.275698    1600.3814  0.090176915  0.084585338   0.11603434   0.29079659  0.025633078  0.023961143  0.049252807  0.098847028 
  347000   -1796488.1    12036.189   -1202.0168    77.032961    88.950692    81.275698    1595.4357   0.08883347  0.085181636    0.1165347   0.29054981   0.02417734  0.024010874  0.049116971  0.097305185 
  348000   -1796565.1    12057.031   -1181.6974    77.032961    88.950692    81.275698    1598.1985   0.09100551  0.084417715   0.11590317    0.2913264   0.02511751   0.02447994  0.048413916  0.098011366 
  349000   -1796512.2    12047.487   -1581.8714    77.032961    88.950692    81.275698    1596.9333  0.089665359  0.086293339   0.11631722   0.29227591  0.024392277  0.024150244  0.048287254  0.096829775 
  350000   -1796565.7    12080.092   -1847.2371    77.032961    88.950692    81.275698    1601.2551  0.090758998  0.085566008   0.11573734   0.29206235  0.024647737  0.024896332  0.046786522  0.096330591 
  351000   -1796588.6    12110.091    -1742.831    77.032961    88.950692    81.275698    1605.2317  0.093459205  0.085334276   0.11695804   0.29575152  0.026739194  0.024303072  0.048657981  0.099700247 
  352000   -1796534.7    12102.098   -1423.5755    77.032961    88.950692    81.275698    1604.1721  0.090367101  0.084849988   0.11651657   0.29173366  0.024118743  0.023633416  0.048402212   0.09615437 
  353000   -1796574.1    12096.494   -1660.2481    77.032961    88.950692    81.275698    1603.4293  0.090918798  0.085215397   0.11644925   0.29258345  0.024716418  0.024329947  0.047423489  0.096469854 
  354000   -1796625.7    12128.378   -1832.6345    77.032961    88.950692    81.275698    1607.6557   0.09099575  0.085113598   0.11563467   0.29174401   0.02485752  0.023623242  0.046788819  0.095269581 
  355000   -1796554.5    12085.925   -1806.7897    77.032961    88.950692    81.275698    1602.0284  0.091078494  0.086410934   0.11729097    0.2947804  0.023914051  0.024132468  0.047261248  0.095307766 
  356000   -1796551.2    12128.788   -1751.4058    77.032961    88.950692    81.275698    1607.7101  0.090329253  0.085859374   0.11726728   0.29345591  0.024894502  0.024162834   0.04752827  0.096585606 
  357000   -1796618.5    12033.475   -2349.5515    77.032961    88.950692    81.275698     1595.076  0.089912404  0.087259687   0.11645116   0.29362325  0.024572541  0.024681625  0.047362334    0.0966165 
  358000   -1796609.8    12053.359   -1726.8068    77.032961    88.950692    81.275698    1597.7116  0.090809554  0.086212667   0.11838904   0.29541126   0.02488268  0.023460206  0.048201657  0.096544544 
  359000   -1796618.4    12153.179   -1772.3043    77.032961    88.950692    81.275698    1610.9432  0.091360447   0.08673562   0.11788722   0.29598328  0.024425142  0.023947747  0.046863417  0.095236305 
  360000   -1796533.6     12078.05   -1249.9452    77.032961    88.950692    81.275698    1600.9845  0.091614646  0.087470633   0.11625141   0.29533669   0.02481569  0.024607521  0.046697556  0.096120768 
  361000   -1796482.8    12061.687   -1253.2486    77.032961    88.950692    81.275698    1598.8156  0.092534744  0.087493558   0.12062119   0.30064949  0.025747381  0.024641501  0.048769871  0.099158753 
  362000   -1796585.8    11994.982   -1323.0538    77.032961    88.950692    81.275698    1589.9736  0.092110025  0.086689939   0.11838739   0.29718735  0.024198996  0.024166035  0.048970441  0.097335472 
  363000   -1796584.2    12074.832   -2132.3958    77.032961    88.950692    81.275698     1600.558  0.093597422  0.086423328   0.11678111   0.29680186  0.026195036   0.02358867  0.048590904   0.09837461 
  364000   -1796544.1    12018.728   -1407.6799    77.032961    88.950692    81.275698    1593.1212  0.093167307  0.087108289   0.11901804   0.29929364  0.024889244  0.024808852  0.049637698  0.099335795 
  365000     -1796562    11993.275   -1809.5134    77.032961    88.950692    81.275698    1589.7474  0.092967009   0.08620759   0.11774655   0.29692115  0.024236264  0.024226197  0.047318509  0.095780971 
  366000   -1796545.5    12108.435    -1750.165    77.032961    88.950692    81.275698    1605.0121  0.094389804  0.088191569   0.11962908   0.30221045  0.025720263  0.024586681  0.046922461  0.097229405 
  367000   -1796633.6    12031.132    -1762.362    77.032961    88.950692    81.275698    1594.7654  0.091415533  0.088482037   0.11822276   0.29812033  0.023812668   0.02523942  0.047813705  0.096865793 
  368000   -1796605.1    12087.975   -1670.6269    77.032961    88.950692    81.275698    1602.3001  0.091459511  0.087851542    0.1199599   0.29927095  0.024661082  0.024588016  0.047261268  0.096510366 
  369000   -1796536.3    12092.801   -1243.8739    77.032961    88.950692    81.275698    1602.9398  0.094268582  0.087606866    0.1189116   0.30078704  0.025304933  0.024079873  0.046422199  0.095807006 
  370000   -1796566.6    12084.916   -1478.5234    77.032961    88.950692    81.275698    1601.8946  0.092901517  0.087659526   0.11788831   0.29844936   0.02441574  0.024334462  0.045059536  0.093809738 
  371000   -1796687.7    12117.359   -2271.1123    77.032961    88.950692    81.275698    1606.1951  0.091879851  0.087885215   0.12004407   0.29980913  0.023897482  0.024456118  0.046019372  0.094372972 
  372000   -1796533.2      12131.8   -1330.9391    77.032961    88.950692    81.275698    1608.1092  0.092536971  0.087242022   0.11906127   0.29884026  0.024632658  0.024583964  0.044584586  0.093801208 
  373000   -1796582.6     12103.07   -1792.3098    77.032961    88.950692    81.275698     1604.301  0.093202171  0.087847558   0.12077382   0.30182355  0.025454519   0.02404495  0.045027318  0.094526787 
  374000   -1796577.7    12024.993   -1851.1427    77.032961    88.950692    81.275698    1593.9517  0.091938596  0.089248586   0.11941897   0.30060615  0.023982437  0.025348008  0.043184927  0.092515372 
  375000   -1796608.4    12086.056   -1745.3756    77.032961    88.950692    81.275698    1602.0457  0.093428178  0.087908097   0.11946771   0.30080399  0.024584873  0.024338908  0.045069766  0.093993547 
  376000   -1796523.4    12018.868   -1699.8797    77.032961    88.950692    81.275698    1593.1397  0.093507631  0.087545095   0.12120244   0.30225517  0.025116757  0.023636759  0.045072758  0.093826273 
  377000   -1796525.5    12053.482   -2192.3383    77.032961    88.950692    81.275698     1597.728  0.093004058  0.088324802   0.12009168   0.30142054  0.023890077  0.023991726  0.045351703  0.093233506 
  378000   -1796541.6    12071.673   -1410.4605    77.032961    88.950692    81.275698    1600.1393  0.093898864  0.089340319   0.12146372    0.3047029  0.025353307  0.024272478  0.045746526  0.095372311 
  379000   -1796630.8    12045.463   -1577.7629    77.032961    88.950692    81.275698     1596.665  0.093213702  0.090116732   0.12134542   0.30467586  0.024484326  0.024720996  0.045141063  0.094346385 
  380000   -1796512.8    12065.487   -1322.4291    77.032961    88.950692    81.275698    1599.3192  0.093380606  0.088868252   0.12031789   0.30256675  0.025187287  0.023841503  0.045093662  0.094122452 
  381000     -1796564    12075.525   -1781.1529    77.032961    88.950692    81.275698    1600.6498  0.094622203  0.089417732   0.12196764   0.30600758  0.025754985  0.024185048  0.046190588  0.096130621 
  382000   -1796622.8    12114.611   -1402.9134    77.032961    88.950692    81.275698    1605.8308  0.093405126   0.08876005   0.12115451   0.30331969  0.024983952  0.024268104  0.046019029  0.095271086 
  383000   -1796534.2    12124.798   -874.67035    77.032961    88.950692    81.275698    1607.1812  0.094216699  0.088360726   0.12205983   0.30463725  0.025387053  0.023585309  0.047342743  0.096315106 
  384000   -1796561.6    12030.435   -1425.0325    77.032961    88.950692    81.275698     1594.673  0.093554009  0.088765658   0.12024031   0.30255997  0.024358538  0.023811042  0.044366628  0.092536208 
  385000   -1796582.8    12092.476   -2150.5308    77.032961    88.950692    81.275698    1602.8968   0.09446966  0.089238208   0.12216627   0.30587414  0.026253122  0.023858328  0.045703987  0.095815437 
  386000   -1796568.5    12062.023   -1723.7788    77.032961    88.950692    81.275698    1598.8601  0.093508787  0.090614275    0.1219714   0.30609447  0.024488614  0.024335758  0.046113944  0.094938316 
  387000   -1796600.2     12062.35   -1802.6299    77.032961    88.950692    81.275698    1598.9035  0.093578466  0.089075415   0.12384674   0.30650062  0.024124399  0.023411637  0.045865009  0.093401046 
  388000   -1796564.9    12065.293   -1814.1452    77.032961    88.950692    81.275698    1599.2936   0.09567139  0.089769334   0.12326812   0.30870885  0.026343796  0.024098626  0.045866083  0.096308506 
  389000   -1796497.2    12113.976   -1608.3323    77.032961    88.950692    81.275698    1605.7466  0.094170632  0.089600294    0.1251939   0.30896483   0.02410002  0.023969227  0.047145052  0.095214299 
  390000   -1796650.5    12111.173    -2283.613    77.032961    88.950692    81.275698    1605.3751  0.094875493  0.089369958    0.1237032   0.30794865  0.024548221  0.023659659  0.045120364  0.093328244 
  391000   -1796584.5    12076.728   -1855.2121    77.032961    88.950692    81.275698    1600.8093  0.095218394  0.089892846   0.12136324   0.30647448  0.025133699  0.024031164  0.045494898  0.094659761 
  392000   -1796617.1    12087.435   -2248.3412    77.032961    88.950692    81.275698    1602.2285   0.09488204  0.088865189   0.12465039   0.30839762  0.025017756  0.023881315  0.047382843  0.096281914 
  393000   -1796562.5    12063.246   -1429.9852    77.032961    88.950692    81.275698    1599.0222  0.095353697  0.091052053   0.12470053   0.31110628  0.024279377  0.024641211  0.048084727  0.097005315 
  394000   -1796629.2    12156.452   -1776.4942    77.032961    88.950692    81.275698     1611.377  0.094634606  0.090292942   0.12380305    0.3087306  0.024571271  0.023798056   0.04789868  0.096268007 
  395000     -1796532    12095.228   -1536.7351    77.032961    88.950692    81.275698    1603.2615  0.095442695  0.090607077   0.12589403    0.3119438  0.024770125  0.024610786  0.048105725  0.097486636 
  396000   -1796524.8    12065.844   -1113.6783    77.032961    88.950692    81.275698    1599.3665  0.095877403  0.090494591   0.12478031   0.31115231  0.024675586  0.024203885  0.049038317  0.097917788 
  397000   -1796512.7    12094.135   -1233.0712    77.032961    88.950692    81.275698    1603.1166  0.096186903  0.091914503   0.12209165   0.31019306  0.025316142  0.024301816  0.046229984  0.095847943 
  398000   -1796572.7    12097.218   -1609.5302    77.032961    88.950692    81.275698    1603.5254  0.096193396  0.091858897   0.12557158   0.31362387  0.024982186  0.024446687  0.048276419  0.097705292 
  399000   -1796566.2    12048.559   -1997.8811    77.032961    88.950692    81.275698    1597.0754   0.09576214  0.091055631   0.12307081   0.30988858  0.024397094  0.023787482  0.047118509  0.095303086 
  400000   -1796593.8     12108.03   -1174.4684    77.032961    88.950692    81.275698    1604.9584   0.09737201  0.091160967   0.12331312    0.3118461  0.025983017  0.024050722  0.046246567  0.096280306 
  401000   -1796549.4    12085.414   -1458.1615    77.032961    88.950692    81.275698    1601.9607  0.095930153  0.090747039   0.12462847   0.31130567   0.02497473   0.02421558  0.046422927  0.095613237 
  402000   -1796599.7    12110.793   -1300.0115    77.032961    88.950692    81.275698    1605.3248  0.095047791  0.091426496   0.12435475   0.31082903  0.024273633  0.024026925  0.045495989  0.093796547 
  403000   -1796594.9    12113.041   -1643.3627    77.032961    88.950692    81.275698    1605.6227  0.096854362  0.091388017   0.12492176   0.31316414  0.026381085  0.024458476  0.047287106  0.098126668 
  404000   -1796494.5    12058.152   -1494.4492    77.032961    88.950692    81.275698     1598.347  0.096688214  0.091919656    0.1257275   0.31433537  0.025444693  0.024248993  0.047674076  0.097367762 
  405000   -1796620.6    12016.145    -1703.903    77.032961    88.950692    81.275698    1592.7788  0.096033495  0.092381694   0.12505418   0.31346937  0.024803434  0.024347408  0.047213242  0.096364085 
  406000   -1796642.4    12031.949   -2381.9173    77.032961    88.950692    81.275698    1594.8737  0.097463077  0.092181108   0.12553827   0.31518246  0.025805185  0.024612692  0.045750709  0.096168586 
  407000   -1796576.4    12039.197   -1991.1892    77.032961    88.950692    81.275698    1595.8344  0.097775455  0.090831761   0.12371559    0.3123228  0.025563808  0.024272608  0.044218771  0.094055186 
  408000   -1796601.1    12103.381   -1898.6942    77.032961    88.950692    81.275698    1604.3423  0.095663028  0.090911531   0.12596442   0.31253898   0.02490421   0.02375711  0.047007988  0.095669308 
  409000   -1796616.2    12092.752   -2222.1153    77.032961    88.950692    81.275698    1602.9333  0.097073942  0.091924439   0.12529169   0.31429007  0.025280678  0.023805417   0.04549417  0.094580264 
  410000   -1796540.8    12077.949   -1673.0385    77.032961    88.950692    81.275698    1600.9712  0.096488405  0.091466485   0.12621915   0.31417404  0.025000867  0.024600157  0.045435808  0.095036831 
  411000   -1796584.5    12040.773   -1694.4416    77.032961    88.950692    81.275698    1596.0433  0.096699815  0.090672699   0.12747054   0.31484305  0.024668938  0.023681357  0.046499299  0.094849594 
  412000   -1796574.2    12089.734   -2029.5313    77.032961    88.950692    81.275698    1602.5333  0.096915304  0.091912047   0.12484699   0.31367435  0.025203303  0.023942744  0.044155416  0.093301462 
  413000   -1796585.1    12052.019   -1336.9665    77.032961    88.950692    81.275698    1597.5341  0.095452631  0.091824596    0.1250839   0.31236112  0.024457533  0.024382768  0.044278118  0.093118419 
  414000   -1796626.5     12002.45    -2518.516    77.032961    88.950692    81.275698    1590.9635  0.096348621  0.091466589   0.12558037   0.31339558  0.024394363  0.024070038  0.044770882  0.093235283 
  415000   -1796560.5    12112.849   -1959.0853    77.032961    88.950692    81.275698    1605.5973  0.097536951  0.092023895   0.12518987   0.31475072  0.025476112  0.023895001  0.044874478  0.094245591 
  416000   -1796518.1    12067.322   -1451.0313    77.032961    88.950692    81.275698    1599.5625  0.098935354  0.091876044   0.12608027   0.31689167  0.026278981   0.02463765  0.045716458  0.096633089 
  417000     -1796584    12098.933   -1955.1257    77.032961    88.950692    81.275698    1603.7526  0.097635457  0.091704939   0.12582403   0.31516443   0.02458162  0.023873147  0.045013509  0.093468277 
  418000   -1796600.9    12053.556   -1728.3442    77.032961    88.950692    81.275698    1597.7378   0.09773826  0.090137872   0.12922871   0.31710484  0.025354053  0.023287323  0.046073307  0.094714684 
  419000   -1796592.7    12102.662   -1661.4695    77.032961    88.950692    81.275698     1604.247  0.097076323  0.092641513   0.12736657   0.31708441  0.025706216  0.024144707  0.045062439  0.094913362 
  420000   -1796609.6    12014.324   -1932.6297    77.032961    88.950692    81.275698    1592.5374  0.097106815  0.093339894   0.12817395   0.31862066  0.024807631  0.024496004  0.047076683  0.096380318 
  421000     -1796521    12104.767   -1219.7039    77.032961    88.950692    81.275698     1604.526  0.097744618  0.092529337   0.12749906   0.31777302  0.025085509  0.023866731  0.045275491  0.094227732 
  422000   -1796493.5    12086.905   -1010.5509    77.032961    88.950692    81.275698    1602.1583  0.098602748  0.093106064    0.1288961   0.32060491  0.025994128  0.024549834  0.045657116  0.096201079 
  423000     -1796629      11983.6    -2370.639    77.032961    88.950692    81.275698    1588.4649  0.096984184  0.092274461   0.12927359   0.31853223  0.024297407   0.02435066  0.047024519  0.095672585 
  424000   -1796561.7    12094.456   -1621.4027    77.032961    88.950692    81.275698    1603.1592  0.097335559  0.092955723   0.12824251   0.31853379    0.0250178  0.024457002  0.044527993  0.094002795 
  425000   -1796523.2    11988.386   -1748.3916    77.032961    88.950692    81.275698    1589.0993  0.098875088   0.09303604   0.12939147    0.3213026  0.025944921  0.024052221  0.047600311  0.097597454 
  426000   -1796594.8    12111.793   -1599.9821    77.032961    88.950692    81.275698    1605.4573  0.098337664  0.093003309   0.12814886   0.31948983  0.025494605  0.024092492  0.045914348  0.095501445 
  427000   -1796634.2    12002.989   -2146.1617    77.032961    88.950692    81.275698     1591.035  0.098728701   0.09411266   0.13131279   0.32415415  0.024687175  0.023904259  0.047303529  0.095894963 
  428000   -1796534.3    12095.044   -960.88152    77.032961    88.950692    81.275698    1603.2371  0.099565827  0.093828816   0.12878695   0.32218159  0.025691477  0.024079126  0.045751947  0.095522551 
  429000   -1796554.9    12025.149    -1802.802    77.032961    88.950692    81.275698    1593.9724  0.098563347  0.094342197   0.12972427   0.32262981  0.025141973  0.024552538  0.046085432  0.095779943 
  430000   -1796649.4    12070.086   -1890.0676    77.032961    88.950692    81.275698    1599.9288  0.098502976  0.093708303   0.12880002    0.3210113  0.024586951  0.023963735  0.045773685  0.094324372 
  431000   -1796550.9    12051.543   -2222.2875    77.032961    88.950692    81.275698     1597.471  0.099005957  0.094426139   0.12919638   0.32262848  0.024886274  0.024113746  0.045505124  0.094505143 
  432000   -1796662.1    12072.103   -2491.4366    77.032961    88.950692    81.275698    1600.1962  0.099364592  0.093699479   0.12943756   0.32250164  0.024784361  0.024191406  0.046431098  0.095406865 
  433000   -1796584.3    12112.811   -2011.4728    77.032961    88.950692    81.275698    1605.5923   0.10034674  0.094408051   0.13117207   0.32592686   0.02510301  0.023765991  0.047300603  0.096169604 
  434000   -1796582.6    12070.584   -1299.5642    77.032961    88.950692    81.275698    1599.9949  0.098958267   0.09373754    0.1314833   0.32417911  0.024670737  0.023836336  0.047238673  0.095745746 
  435000     -1796588    12077.563   -1792.0099    77.032961    88.950692    81.275698      1600.92   0.10026917  0.094100843   0.13119076   0.32556077  0.024986457  0.023612576  0.047200743  0.095799776 
  436000   -1796548.6    12084.476    -1784.792    77.032961    88.950692    81.275698    1601.8363   0.09881037  0.092806524   0.13364035   0.32525724  0.024196491  0.023776266  0.047725012  0.095697769 
  437000   -1796541.4    12019.893   -1879.6696    77.032961    88.950692    81.275698    1593.2756   0.10002884   0.09486026   0.13078724   0.32567634  0.024938366  0.024156871  0.045658095  0.094753332 
  438000     -1796601    12048.667   -1809.2441    77.032961    88.950692    81.275698    1597.0898  0.098999516  0.093969715   0.13318136    0.3261506  0.024481045   0.02377459  0.046975805   0.09523144 
  439000   -1796634.8    11975.391   -2246.1459    77.032961    88.950692    81.275698    1587.3767  0.098910666  0.094739137    0.1302116   0.32386141  0.024905428  0.024476716  0.044709189  0.094091332 
  440000     -1796547    12158.284   -1368.9346    77.032961    88.950692    81.275698    1611.6198  0.099122483  0.094050497   0.13001662    0.3231896  0.025332561  0.024021882  0.045138608  0.094493051 
  441000   -1796548.8    12054.721   -1957.6891    77.032961    88.950692    81.275698    1597.8922  0.098800981    0.0954327   0.13217436   0.32640804  0.024743278  0.024504282  0.047854622  0.097102182 
  442000   -1796518.1    12096.242   -1890.7052    77.032961    88.950692    81.275698     1603.396  0.099078523  0.094693238   0.13115517   0.32492693  0.024948379  0.024189041  0.046597612  0.095735032 
  443000   -1796562.6    12069.179   -1912.2834    77.032961    88.950692    81.275698    1599.8086  0.099406882  0.094435209   0.13187434   0.32571644   0.02464736  0.023714164  0.047514947   0.09587647 
  444000     -1796620    12011.561   -1997.2384    77.032961    88.950692    81.275698    1592.1712  0.099715412  0.094742393   0.13172911   0.32618692  0.025015468  0.024150639  0.045028722  0.094194829 
  445000   -1796520.1    12078.213   -1320.2927    77.032961    88.950692    81.275698    1601.0061   0.10013522  0.095063761   0.13332823   0.32852721  0.024291316  0.024030314  0.049552699  0.097874329 
  446000   -1796575.1     12043.85   -2135.0156    77.032961    88.950692    81.275698    1596.4512   0.10094251   0.09443613   0.13119744   0.32657608  0.025115891  0.023918658  0.046047016  0.095081565 
  447000   -1796509.4    12123.225    -1108.479    77.032961    88.950692    81.275698    1606.9726   0.10122567   0.09452542   0.13270899   0.32846008  0.024858446  0.023727775  0.047164839   0.09575106 
  448000   -1796592.6    12126.674   -1752.0369    77.032961    88.950692    81.275698    1607.4298   0.10120587  0.095526635   0.13484206   0.33157456  0.024971818  0.024361542  0.048191034  0.097524393 
  449000   -1796618.2    12180.591   -1735.4585    77.032961    88.950692    81.275698    1614.5766   0.10025286  0.095519275   0.13036876    0.3261409  0.023876724  0.024164326  0.044819644  0.092860693 
  450000   -1796592.2    12034.104   -1977.2498    77.032961    88.950692    81.275698    1595.1594   0.10097433  0.094292462   0.13650602   0.33177281  0.025120167  0.023220258  0.049338562  0.097678986 
  451000   -1796538.5    12100.042   -1340.6263    77.032961    88.950692    81.275698    1603.8997   0.10066823  0.096561978   0.13409403   0.33132424  0.024814909  0.024668011  0.045932052  0.095414973 
  452000   -1796618.3    12086.528   -1856.6284    77.032961    88.950692    81.275698    1602.1083   0.10135535  0.095674327    0.1353218   0.33235148  0.024878731  0.022906488  0.047873077  0.095658297 
  453000   -1796539.9    12085.082   -1277.3646    77.032961    88.950692    81.275698    1601.9166    0.1019352  0.096891979   0.13323709   0.33206427  0.025379173  0.024299114  0.047386907  0.097065193 
  454000   -1796631.6    12069.005   -2217.4424    77.032961    88.950692    81.275698    1599.7855   0.10104082   0.09631844   0.13180412   0.32916338  0.024737995  0.024799572  0.046243833    0.0957814 
  455000   -1796601.8    12042.008   -1948.9594    77.032961    88.950692    81.275698    1596.2071   0.10225288  0.097049055   0.13495772   0.33425965  0.025209115  0.024393955  0.048151592  0.097754662 
  456000   -1796541.8    12097.857   -1283.7004    77.032961    88.950692    81.275698    1603.6101   0.10304714  0.095937197   0.13477513   0.33375947  0.025667037   0.02443178   0.04489152  0.094990336 
  457000   -1796617.3    12053.452   -1649.6541    77.032961    88.950692    81.275698     1597.724    0.1024737  0.096504162   0.13656338   0.33554124  0.024666349  0.024087062  0.048260445  0.097013856 
  458000   -1796584.6    12052.658   -1856.4881    77.032961    88.950692    81.275698    1597.6187   0.10168947  0.097603552   0.13348225   0.33277527  0.024435777  0.025177533  0.045494837  0.095108146 
  459000   -1796564.6    12074.409   -1919.6848    77.032961    88.950692    81.275698    1600.5019   0.10275138  0.096662425   0.13572056   0.33513437  0.025842477  0.024453425  0.047894305  0.098190207 
  460000   -1796648.3    12058.267   -2026.9782    77.032961    88.950692    81.275698    1598.3622   0.10158214  0.095727732   0.13519192   0.33250179  0.024841821  0.023588673  0.047896886   0.09632738 
  461000   -1796482.7    12103.169   -1285.4766    77.032961    88.950692    81.275698    1604.3141   0.10182159  0.097005537   0.13580905   0.33463618  0.024617893  0.025259862  0.047234245  0.097111999 
  462000   -1796606.8    11983.254   -2455.4848    77.032961    88.950692    81.275698     1588.419   0.10423353  0.096829686   0.13671541   0.33777863  0.026132872  0.024395586    0.0472001  0.097728557 
  463000   -1796620.6    12060.762   -2491.5159    77.032961    88.950692    81.275698     1598.693    0.1016746  0.096239545   0.13272794   0.33064209  0.024012811  0.024111068  0.044873588  0.092997467 
  464000   -1796568.8    12101.406   -1569.7527    77.032961    88.950692    81.275698    1604.0805   0.10254255  0.096855384   0.13648289   0.33588082  0.024695193  0.024527782  0.048496907  0.097719882 
  465000   -1796621.6    11972.421   -2328.2979    77.032961    88.950692    81.275698    1586.9831   0.10429884  0.097811561   0.13506941   0.33717981  0.025382339  0.024257988  0.045526797  0.095167124 
  466000   -1796598.4    12108.018   -1748.7328    77.032961    88.950692    81.275698    1604.9569   0.10260979    0.0962056   0.13503775   0.33385315  0.025333167  0.023261432  0.045771454  0.094366053 
  467000     -1796604    12063.047   -1873.4757    77.032961    88.950692    81.275698    1598.9958   0.10294098  0.096061481   0.13560143   0.33460389  0.024073598  0.023453096  0.045738031  0.093264725 
  468000   -1796624.8     12086.87   -1952.3573    77.032961    88.950692    81.275698    1602.1537   0.10372076  0.098032862   0.13535004   0.33710366  0.024631266  0.024592148  0.044404165  0.093627578 
  469000   -1796620.7    12055.016   -2200.7903    77.032961    88.950692    81.275698    1597.9313   0.10322258  0.096866734   0.13546688    0.3355562  0.025019165  0.023897297  0.046086028  0.095002489 
  470000   -1796621.1    12039.073   -1762.8703    77.032961    88.950692    81.275698    1595.8181   0.10355126  0.096264725   0.13563286   0.33544884  0.024079428  0.023581574  0.045834582  0.093495584 
  471000   -1796640.1     12052.38   -1940.9758    77.032961    88.950692    81.275698    1597.5819   0.10388178   0.09694019   0.13667426   0.33749623  0.025076411  0.024110474  0.046291685   0.09547857 
  472000     -1796494     12003.79   -1595.2003    77.032961    88.950692    81.275698    1591.1412   0.10417439  0.097622249   0.13559087   0.33738751  0.025201148  0.024388078  0.044903343  0.094492569 
  473000     -1796541    12063.508   -1060.7352    77.032961    88.950692    81.275698    1599.0569   0.10363941  0.096763504   0.13492557   0.33532848  0.025215477  0.023462846  0.045825174  0.094503497 
  474000   -1796537.7     12103.95   -1730.9284    77.032961    88.950692    81.275698    1604.4177   0.10454085   0.09739109   0.13477307   0.33670501  0.025922375  0.025014842  0.046173055  0.097110271 
  475000   -1796601.9    12078.186   -2178.1106    77.032961    88.950692    81.275698    1601.0026   0.10328401  0.097289456   0.13443341   0.33500687   0.02507518  0.024409791  0.044345034  0.093830005 
  476000     -1796567    12042.866   -1458.9587    77.032961    88.950692    81.275698    1596.3208   0.10414284  0.096968581   0.13768303   0.33879445  0.024604933  0.024227012  0.047389293  0.096221237 
  477000   -1796584.8    12023.709   -1667.1937    77.032961    88.950692    81.275698    1593.7815   0.10535142    0.0979562   0.13554785   0.33885546  0.025704686  0.023976289  0.045833988  0.095514963 
  478000   -1796511.8    12052.001   -1519.0447    77.032961    88.950692    81.275698    1597.5316    0.1057291  0.097916391   0.13644827   0.34009376  0.025912408  0.024703383   0.04556269  0.096178481 
  479000   -1796534.3    12058.866   -1274.2329    77.032961    88.950692    81.275698    1598.4416   0.10358626  0.097603662   0.13771999   0.33890991  0.024331771  0.024030606  0.046332808  0.094695185 
  480000   -1796600.9     12044.32   -2034.6077    77.032961    88.950692    81.275698    1596.5135   0.10417719  0.096730681   0.13633411   0.33724198  0.024576137   0.02382048  0.046419321  0.094815938 
  481000   -1796520.2     12156.64   -1008.5773    77.032961    88.950692    81.275698    1611.4018   0.10554997   0.09872991   0.13696201   0.34124189  0.025617878  0.024956561  0.047164055  0.097738494 
  482000   -1796608.2    12085.538   -1468.6322    77.032961    88.950692    81.275698    1601.9772   0.10477078  0.098565484   0.13686634    0.3402026  0.024268519  0.024762615  0.047730522  0.096761656 
  483000   -1796501.2    12050.691   -1124.6128    77.032961    88.950692    81.275698     1597.358   0.10623812  0.098197058   0.13579983   0.34023501  0.026283096  0.023942911  0.047647421  0.097873428 
  484000     -1796517    12163.264   -1146.1149    77.032961    88.950692    81.275698    1612.2799   0.10509612  0.098040234   0.13789311   0.34102946  0.025817045  0.023527806  0.048630217  0.097975067 
  485000   -1796580.3    12081.469   -1573.9927    77.032961    88.950692    81.275698    1601.4377   0.10476551  0.098532328   0.13795924   0.34125708  0.024451993   0.02440984  0.047050606  0.095912439 
  486000   -1796510.7    12020.446   -1386.5456    77.032961    88.950692    81.275698    1593.3489   0.10731707  0.099258723    0.1391853   0.34576109  0.026215908  0.024115917  0.048225024  0.098556849 
  487000   -1796547.3    12085.779   -1332.7785    77.032961    88.950692    81.275698    1602.0091   0.10571171  0.098387671   0.13935314   0.34345252  0.025253328  0.023398718  0.047481017  0.096133064 
  488000   -1796622.3    12092.043   -2407.2006    77.032961    88.950692    81.275698    1602.8394   0.10493532  0.099430341   0.13777314    0.3421388  0.024790573  0.024106637  0.046517909  0.095415119 
  489000   -1796514.4    12013.432   -1282.9739    77.032961    88.950692    81.275698    1592.4193   0.10641443  0.098993422   0.13979369   0.34520154   0.02522443  0.024301376  0.048210968  0.097736775 
  490000   -1796560.6    12017.602   -1612.5413    77.032961    88.950692    81.275698    1592.9719   0.10697499  0.099430335   0.13785329   0.34425861  0.025257669  0.023568132  0.047816051  0.096641852 
  491000   -1796567.5    12058.695   -1581.1778    77.032961    88.950692    81.275698    1598.4189   0.10661506  0.098809457   0.14107915   0.34650367  0.025705901  0.023545198  0.049750121  0.099001219 
  492000   -1796572.7    12016.248   -1148.7188    77.032961    88.950692    81.275698    1592.7925   0.10569492  0.099685653   0.13830719   0.34368776  0.024406819  0.024343844  0.046423884  0.095174547 
  493000   -1796660.4    12083.257   -1989.3568    77.032961    88.950692    81.275698    1601.6747   0.10584304  0.099256599   0.14020454   0.34530418   0.02546009  0.023499859  0.047746111   0.09670606 
  494000   -1796618.4    12086.264   -2421.4959    77.032961    88.950692    81.275698    1602.0733    0.1050526  0.099871579   0.13979322    0.3447174  0.024766753  0.024349849  0.048090301  0.097206904 
  495000   -1796570.4    12112.549   -1828.5999    77.032961    88.950692    81.275698    1605.5575   0.10436183   0.10055393   0.13881929   0.34373505   0.02397661   0.02522328  0.046420175  0.095620065 
  496000   -1796620.2    11999.092   -1976.8155    77.032961    88.950692    81.275698    1590.5184   0.10769948  0.099763233   0.14085765   0.34832036  0.026278859  0.024515116  0.047196794  0.097990769 
  497000   -1796534.4    12091.376   -1691.9449    77.032961    88.950692    81.275698     1602.751   0.10711231    0.1004325   0.13950678   0.34705159   0.02519548  0.023384572  0.046256169  0.094836221 
  498000   -1796669.4    12086.605   -1933.0743    77.032961    88.950692    81.275698    1602.1185   0.10719364  0.099768862   0.14203328   0.34899578  0.024769511  0.023961416  0.048728185  0.097459112 
  499000     -1796563    12081.326   -1559.8894    77.032961    88.950692    81.275698    1601.4187   0.10784229   0.10136615   0.14134467   0.35055312  0.025214102  0.025074688  0.045897015  0.096185805 
  500000   -1796550.2    12056.913   -1770.3537    77.032961    88.950692    81.275698    1598.1828   0.10700384   0.10019027    0.1425894   0.34978351  0.024656502  0.024414241  0.049755716  0.098826459 
  501000   -1796562.6    12059.777   -1893.4906    77.032961    88.950692    81.275698    1598.5624     0.107622   0.10006667   0.14266034   0.35034901  0.024346722  0.023617146  0.048704687  0.096668555 
  502000   -1796529.5     11991.54   -1694.1019    77.032961    88.950692    81.275698    1589.5173   0.10860114   0.10039683   0.14052139   0.34951936  0.026304384  0.025037277   0.04638158  0.097723241 
  503000   -1796566.3    12089.986   -1587.1957    77.032961    88.950692    81.275698    1602.5667   0.10713422   0.10187135   0.14276499   0.35177056  0.024207624  0.025120281  0.050006844  0.099334749 
  504000   -1796610.3    12152.377    -1597.937    77.032961    88.950692    81.275698    1610.8368   0.10656139   0.10062021   0.14124215   0.34842375  0.024431259   0.02351895  0.046992616  0.094942826 
  505000   -1796565.3    12056.052   -1729.3017    77.032961    88.950692    81.275698    1598.0686   0.10925534   0.10144641   0.14224867   0.35295041   0.02630169   0.02472504  0.047775893  0.098802622 
  506000   -1796551.8     12056.52   -1500.6915    77.032961    88.950692    81.275698    1598.1306    0.1075522   0.10053746   0.14148213   0.34957179  0.024565684  0.024853029  0.047663333  0.097082046 
  507000   -1796515.6    12073.524   -1538.9383    77.032961    88.950692    81.275698    1600.3846   0.10824068   0.10102597   0.14301928   0.35228593  0.024579145  0.023706974  0.048681138  0.096967257 
  508000   -1796536.5     12016.62    -1941.183    77.032961    88.950692    81.275698    1592.8417   0.10847889    0.1013583   0.14193411   0.35177131  0.025501173  0.023878234  0.047177295  0.096556703 
  509000   -1796604.6    11991.273   -1787.3977    77.032961    88.950692    81.275698     1589.482   0.10791422    0.1017332   0.14128613   0.35093355  0.025213397  0.024612752  0.047575079  0.097401227 
  510000   -1796635.1    12195.026   -1722.9893    77.032961    88.950692    81.275698    1616.4901    0.1083476   0.10101657   0.14322624   0.35259041  0.024336452   0.02450132  0.048450507  0.097288279 
  511000   -1796545.5    12094.671   -1829.6941    77.032961    88.950692    81.275698    1603.1877   0.10913517   0.10073354    0.1415017   0.35137042  0.025657504   0.02403698  0.046333259  0.096027742 
  512000   -1796566.8    12095.452   -1654.1056    77.032961    88.950692    81.275698    1603.2913   0.10735741   0.10186301   0.14337537   0.35259578   0.02498798  0.024919613   0.04787546  0.097783053 
  513000   -1796535.7    12042.225   -1647.8242    77.032961    88.950692    81.275698    1596.2359   0.10722429   0.10158639   0.14288505   0.35169573   0.02434674  0.023867921   0.04583532  0.094049982 
  514000   -1796590.6    12033.175   -1591.3136    77.032961    88.950692    81.275698    1595.0362   0.10858718   0.10157428   0.14349625    0.3536577  0.025683919  0.023624389  0.047502111  0.096810419 
  515000     -1796538    12026.289   -1452.7991    77.032961    88.950692    81.275698    1594.1234   0.10838502   0.10164983   0.14249754   0.35253239  0.025129473  0.024319131  0.047114211  0.096562815 
  516000   -1796566.9    12032.708   -2043.9123    77.032961    88.950692    81.275698    1594.9744   0.10872893   0.10140738   0.14284236   0.35297867  0.024848944  0.024355146  0.047286764  0.096490854 
  517000   -1796653.2    12023.729   -2459.4745    77.032961    88.950692    81.275698    1593.7841   0.10928826   0.10169648   0.14329477   0.35427951   0.02536839  0.023835723  0.048286125  0.097490239 
  518000   -1796565.1    12089.283   -1828.1524    77.032961    88.950692    81.275698    1602.4736    0.1065703   0.10120373   0.14172381   0.34949783   0.02404955  0.024461778  0.047724231   0.09623556 
  519000   -1796642.3    12038.119   -2491.0223    77.032961    88.950692    81.275698    1595.6916   0.10775037   0.10130246   0.14180966    0.3508625  0.024741326  0.024285862  0.047890193  0.096917381 
  520000   -1796596.7    12093.212   -1574.1155    77.032961    88.950692    81.275698    1602.9943    0.1087858   0.10205581   0.14105939   0.35190099  0.025118051  0.024720062  0.047960135  0.097798247 
  521000   -1796555.1     12161.12   -1552.6246    77.032961    88.950692    81.275698    1611.9957   0.10917374    0.1012487   0.14186799   0.35229044  0.025831828  0.023308721   0.04758684  0.096727389 
  522000   -1796565.3    12076.278   -1400.5551    77.032961    88.950692    81.275698    1600.7496   0.10812818   0.10250332   0.14228758   0.35291908  0.024435746  0.024632159  0.048694787  0.097762692 
  523000   -1796584.8    12066.758   -1802.0584    77.032961    88.950692    81.275698    1599.4877   0.10871228   0.10281673   0.14361766   0.35514668  0.024511561   0.02486935  0.048781411  0.098162322 
  524000   -1796518.8      11975.1   -1705.0068    77.032961    88.950692    81.275698    1587.3382    0.1090157   0.10365665   0.14316402   0.35583637  0.026115553  0.024646634  0.048390156  0.099152342 
  525000   -1796652.3    12094.267   -1883.4121    77.032961    88.950692    81.275698    1603.1341   0.10794939   0.10267244   0.14110302   0.35172485  0.024434806  0.023558542  0.047861823  0.095855171 
  526000   -1796518.3    12109.802   -1456.9365    77.032961    88.950692    81.275698    1605.1933   0.10932038     0.102956   0.14371151   0.35598789  0.025425042  0.024780041  0.049965822   0.10017091 
  527000   -1796569.9    12048.036   -1682.8202    77.032961    88.950692    81.275698     1597.006   0.10950351   0.10355784   0.14168821   0.35474956  0.024796489  0.024399158  0.047871729  0.097067376 
  528000     -1796551    12055.372   -1731.3634    77.032961    88.950692    81.275698    1597.9785   0.10826842   0.10292118   0.14243995   0.35362954  0.025051939  0.024026596  0.048137409  0.097215944 
  529000   -1796549.7    12076.932   -1859.6313    77.032961    88.950692    81.275698    1600.8363   0.10942135   0.10364198   0.14355732   0.35662065  0.025049216  0.025313951  0.049269201  0.099632368 
  530000   -1796560.8    12031.133   -1620.3016    77.032961    88.950692    81.275698    1594.7655   0.11075919    0.1051443   0.14137983   0.35728332  0.025431933  0.024532294  0.047739747  0.097703974 
  531000   -1796637.3    12065.738   -1828.3222    77.032961    88.950692    81.275698    1599.3526   0.10955682   0.10292921   0.14178211   0.35426814  0.025036864   0.02375587  0.048409232  0.097201967 
  532000   -1796571.5    12038.481   -1627.7912    77.032961    88.950692    81.275698    1595.7395   0.11032008   0.10341049   0.14324129   0.35697185  0.024958882  0.024038691  0.048823994  0.097821567 
  533000     -1796592    12083.966   -1568.9766    77.032961    88.950692    81.275698    1601.7687   0.11008653   0.10302459   0.14401393   0.35712506  0.025092232  0.024753312   0.04772339  0.097568934 
  534000   -1796596.7    12061.216   -2037.6528    77.032961    88.950692    81.275698    1598.7531   0.10922297   0.10361132   0.14453234   0.35736663  0.024561354  0.024369835  0.048741045  0.097672234 
  535000   -1796555.3    12103.598   -1585.7021    77.032961    88.950692    81.275698     1604.371   0.11018768   0.10317014   0.14527463   0.35863245  0.025022076  0.024332599  0.047440516  0.096795191 
  536000   -1796552.3    12065.467   -1789.2082    77.032961    88.950692    81.275698    1599.3166   0.11013376   0.10466432   0.14413965   0.35893773  0.025927534  0.024951569  0.048576303  0.099455406 
  537000   -1796557.8    12022.876    -1710.993    77.032961    88.950692    81.275698    1593.6711   0.11012588    0.1035024   0.14444074   0.35806902  0.024967087  0.024024458  0.048112393  0.097103938 
  538000     -1796605    12069.853   -1533.0617    77.032961    88.950692    81.275698     1599.898    0.1097432   0.10274791   0.14612733   0.35861844  0.025010903  0.023759329  0.049168341  0.097938573 
  539000   -1796572.5    12085.647   -1736.6243    77.032961    88.950692    81.275698    1601.9916   0.11054705   0.10453559   0.14316987   0.35825251  0.024784992  0.024340666  0.047217626  0.096343285 
  540000   -1796595.8    12090.194   -2337.3197    77.032961    88.950692    81.275698    1602.5942   0.11047935   0.10391626   0.14352164   0.35791724  0.024606182  0.024221766  0.049610735  0.098438683 
  541000   -1796607.6    12095.256   -2001.5769    77.032961    88.950692    81.275698    1603.2652   0.11011625   0.10470239   0.14492852   0.35974716   0.02402753  0.024281835  0.049049126  0.097358491 
  542000   -1796536.4    12127.588    -1446.819    77.032961    88.950692    81.275698     1607.551   0.11216152   0.10477099   0.14560679    0.3625393  0.026207091  0.023766599  0.049700613  0.099674303 
  543000     -1796562    12093.981   -1303.2053    77.032961    88.950692    81.275698    1603.0962   0.11041492   0.10404859   0.14408465   0.35854816  0.024942374  0.024582123  0.049434265  0.098958763 
  544000   -1796589.7     12107.74   -2029.3314    77.032961    88.950692    81.275698    1604.9201   0.11057854   0.10538862   0.14545129   0.36141845  0.024955041  0.023596645  0.050253731  0.098805418 
  545000   -1796559.3     12072.35   -1931.0887    77.032961    88.950692    81.275698     1600.229   0.11054149   0.10394029   0.14455236   0.35903414   0.02515597  0.024374348   0.04862213  0.098152448 
  546000   -1796548.3    12052.237   -1915.2933    77.032961    88.950692    81.275698     1597.563   0.11071009   0.10461833   0.14592627   0.36125468  0.025274386  0.024154411   0.04964703  0.099075827 
  547000   -1796553.4     12097.01   -1422.1554    77.032961    88.950692    81.275698    1603.4977   0.11063975   0.10438166   0.14606232   0.36108373  0.025046056  0.023999432  0.050334172   0.09937966 
  548000   -1796519.7    12054.749   -1452.8125    77.032961    88.950692    81.275698     1597.896   0.11045863    0.1045429   0.14587793   0.36087946  0.025063597  0.023923797  0.049211047  0.098198441 
  549000   -1796626.8    12023.355   -2349.6816    77.032961    88.950692    81.275698    1593.7345   0.11193896   0.10430596   0.14566543   0.36191036  0.025496452  0.024258196  0.050683314   0.10043796 
  550000   -1796663.1    12031.603   -2154.3311    77.032961    88.950692    81.275698    1594.8279     0.111582   0.10489568   0.14538159   0.36185927  0.025275309  0.024849395  0.049584795    0.0997095 
  551000   -1796573.7    12048.407   -1595.3157    77.032961    88.950692    81.275698    1597.0552    0.1112478   0.10516968   0.14551829   0.36193576  0.024936054  0.023705862  0.049581925   0.09822384 
  552000   -1796634.3    12101.888   -1744.3733    77.032961    88.950692    81.275698    1604.1444   0.11136727   0.10407517   0.14543619   0.36087863  0.025278729  0.023602201  0.051336103   0.10021703 
  553000   -1796546.4    12049.595    -1795.543    77.032961    88.950692    81.275698    1597.2127   0.11107027   0.10448892    0.1445025   0.36006169  0.024656467  0.024264926  0.049528746  0.098450139 
  554000   -1796483.9    12032.399   -1413.7839    77.032961    88.950692    81.275698    1594.9334   0.11107981   0.10483335   0.14546481   0.36137797   0.02481516   0.02472723  0.049939251  0.099481641 
  555000   -1796496.4     12126.57   -1006.3539    77.032961    88.950692    81.275698    1607.4159   0.11265869   0.10516213    0.1444121   0.36223291   0.02553834  0.024147185  0.050915123   0.10060065 
  556000   -1796501.6    12118.798   -771.77708    77.032961    88.950692    81.275698    1606.3858   0.11176142   0.10539505   0.14509015   0.36224662  0.025590252  0.024101664  0.051739953   0.10143187 
  557000   -1796525.1    12071.107   -1699.8883    77.032961    88.950692    81.275698    1600.0642    0.1113549   0.10590748    0.1444097   0.36167208  0.024991484  0.024889531  0.049999928  0.099880943 
  558000   -1796516.7    12070.162   -1606.3436    77.032961    88.950692    81.275698    1599.9389   0.11157189   0.10597623   0.14709368    0.3646418  0.025152917  0.024302491  0.052460533   0.10191594 
  559000   -1796580.6     12153.42   -1792.9515    77.032961    88.950692    81.275698     1610.975   0.11032561    0.1052465   0.14564123   0.36121334  0.024187108  0.024476824  0.050231888  0.098895821 
  560000   -1796597.1    11976.758    -1985.487    77.032961    88.950692    81.275698     1587.558   0.11120623   0.10557922   0.14655783   0.36334328  0.025413719  0.024458547  0.051542199   0.10141447 
  561000   -1796523.2    12073.561   -1219.7946    77.032961    88.950692    81.275698    1600.3895   0.11267842   0.10632217   0.14833241     0.367333  0.025669024  0.024132986  0.051688447   0.10149046 
  562000     -1796563    12113.525   -1719.0753    77.032961    88.950692    81.275698    1605.6869    0.1140409   0.10655297   0.14651097   0.36710485  0.025219896  0.024102686  0.049533155  0.098855737 
  563000   -1796637.2    12063.412   -1856.6231    77.032961    88.950692    81.275698    1599.0442   0.11145736   0.10649753   0.14751594   0.36547083  0.024471777  0.023898922  0.050814839  0.099185538 
  564000   -1796627.9    12009.138   -2454.5152    77.032961    88.950692    81.275698      1591.85   0.11197281     0.107209   0.14719121   0.36637302  0.025560759  0.024239631  0.050725738   0.10052613 
  565000   -1796568.8    12001.543   -2058.4974    77.032961    88.950692    81.275698    1590.8433    0.1127517   0.10636116   0.14745411   0.36656697   0.02512581  0.024428908  0.049954113  0.099508831 
  566000   -1796572.4    12084.424   -1607.3478    77.032961    88.950692    81.275698    1601.8294   0.11299257   0.10752962   0.14945907   0.36998126  0.024857027   0.02442888   0.05124572   0.10053163 
  567000   -1796598.9    12090.569    -1645.619    77.032961    88.950692    81.275698    1602.6439   0.11243579   0.10752675   0.14773851   0.36770105  0.025276821  0.024584615  0.049891874   0.09975331 
  568000   -1796611.5    12113.732   -2100.5213    77.032961    88.950692    81.275698    1605.7142   0.11260459   0.10710012   0.14882375   0.36852846   0.02467637   0.02417904  0.049779855  0.098635265 
  569000   -1796546.2    12098.399   -1802.6104    77.032961    88.950692    81.275698    1603.6819   0.11285886   0.10816344   0.14820022   0.36922252   0.02545306  0.024302857  0.049821568  0.099577485 
  570000   -1796651.1    12077.557   -1841.3326    77.032961    88.950692    81.275698    1600.9192     0.112421    0.1065846   0.14884829    0.3678539  0.024425634  0.023552608  0.051250146  0.099228388 
  571000   -1796588.9     12036.94   -1766.4356    77.032961    88.950692    81.275698    1595.5353   0.11311586   0.10703624    0.1482805   0.36843261  0.024800378    0.0234193  0.051004477  0.099224156 
  572000   -1796574.3    12013.076    -1857.905    77.032961    88.950692    81.275698    1592.3721   0.11297885   0.10763109    0.1486111   0.36922105  0.024534146  0.023770068  0.051122746   0.09942696 
  573000   -1796612.2    12057.769   -1889.5369    77.032961    88.950692    81.275698    1598.2962   0.11461321   0.10917232   0.14919831   0.37298385  0.025936059  0.024511195  0.052265467   0.10271272 
  574000   -1796593.4    12134.997   -2299.9984    77.032961    88.950692    81.275698    1608.5331   0.11201266   0.10779262   0.14664103    0.3664463  0.024517774  0.023549344  0.053382045   0.10144916 
  575000   -1796614.5    12076.587   -2421.8583    77.032961    88.950692    81.275698    1600.7906   0.11299378   0.10806616   0.14744821   0.36850815  0.025041366  0.024018658  0.051498203   0.10055823 
  576000   -1796561.9    12064.438   -1680.5545    77.032961    88.950692    81.275698    1599.1802   0.11226096   0.10952896   0.14737454   0.36916446   0.02535677  0.024772759  0.050202444   0.10033197 
  577000   -1796655.8    12031.244   -2191.1534    77.032961    88.950692    81.275698    1594.7803   0.11253754   0.10745057   0.14749509    0.3674832  0.025072734  0.023838457  0.050271049  0.099182241 
  578000   -1796587.6    12181.651   -1346.3769    77.032961    88.950692    81.275698    1614.7172   0.11233919   0.10802762   0.14691469    0.3672815  0.024679775  0.023898281  0.050656867  0.099234924 
  579000   -1796543.2    12047.511   -1707.0576    77.032961    88.950692    81.275698    1596.9364   0.11375226   0.10892204    0.1497595    0.3724338   0.02442968  0.024534019  0.052504889   0.10146859 
  580000   -1796588.5    12090.365    -1550.031    77.032961    88.950692    81.275698    1602.6169   0.11283642   0.10827402   0.14767822   0.36878866  0.024502197  0.023506541  0.051658839  0.099667578 
  581000   -1796636.4    12090.827    -1554.205    77.032961    88.950692    81.275698    1602.6782   0.11298506   0.10925876   0.14940619      0.37165  0.025138277  0.024095556  0.051345143   0.10057898 
  582000   -1796585.5    12060.939     -1976.98    77.032961    88.950692    81.275698    1598.7164   0.11341726   0.11003201    0.1487563   0.37220557  0.025031451  0.023800797  0.050685472  0.099517719 
  583000   -1796552.9    12050.339   -1907.6289    77.032961    88.950692    81.275698    1597.3114   0.11209457   0.11066461   0.14877612   0.37153529  0.024694058  0.024962126  0.052284577   0.10194076 
  584000   -1796516.8    12062.287   -1357.7325    77.032961    88.950692    81.275698    1598.8952   0.11276815   0.11027507   0.14887317   0.37191639  0.024422225  0.023463234  0.051814289  0.099699747 
  585000     -1796643    12061.825   -2059.7678    77.032961    88.950692    81.275698    1598.8338   0.11310479   0.10945765   0.14921599   0.37177844  0.025321712  0.023794523  0.051156039   0.10027227 
  586000     -1796573    12076.344   -1378.9134    77.032961    88.950692    81.275698    1600.7583   0.11295792   0.11024413   0.14927108   0.37247313  0.025607416  0.024675372  0.050709623   0.10099241 
  587000   -1796640.9    12111.622   -2326.9022    77.032961    88.950692    81.275698    1605.4346   0.11440628   0.11016382    0.1491324    0.3737025  0.025575133   0.02388726    0.0523676   0.10182999 
  588000   -1796603.4     12015.22   -1801.0811    77.032961    88.950692    81.275698    1592.6562   0.11403755    0.1095602   0.14852853   0.37212628  0.025502394  0.023813747  0.050247913  0.099564054 
  589000   -1796541.4    12010.457   -1890.1988    77.032961    88.950692    81.275698    1592.0249   0.11453383   0.11194012   0.14934992   0.37582387  0.024706979  0.024181552  0.050972973  0.099861504 
  590000   -1796594.8    12083.788   -1891.9048    77.032961    88.950692    81.275698    1601.7452   0.11263623   0.11093743   0.14898416   0.37255781  0.024192708   0.02494271  0.051274498   0.10040992 
  591000   -1796554.9    12033.546   -1633.5377    77.032961    88.950692    81.275698    1595.0854   0.11357492   0.11037791   0.15019676    0.3741496  0.024565198  0.023212196   0.05158431  0.099361705 
  592000   -1796605.4    12041.104   -1636.9132    77.032961    88.950692    81.275698    1596.0872   0.11446113   0.11121774   0.14935765   0.37503652  0.025507862  0.024099089  0.051717226   0.10132418 
  593000   -1796550.8    12013.303   -1651.7557    77.032961    88.950692    81.275698     1592.402   0.11520717   0.11075025   0.15128658     0.377244  0.025662062  0.024206591  0.052301811   0.10217046 
  594000   -1796565.7    12103.661   -1850.2286    77.032961    88.950692    81.275698    1604.3794   0.11343725   0.10987135   0.14850943   0.37181804  0.024134159  0.023937456  0.050935251  0.099006865 
  595000   -1796623.7    12075.582   -2528.6729    77.032961    88.950692    81.275698    1600.6574   0.11623868   0.10993351   0.15140497   0.37757717  0.025599463  0.024024484   0.05142566   0.10104961 
  596000   -1796571.1    12056.649   -1496.5658    77.032961    88.950692    81.275698    1598.1477   0.11405769   0.11141956   0.15241501   0.37789226  0.024978164  0.024213769  0.052049042   0.10124097 
  597000   -1796664.2    12035.091   -2545.0417    77.032961    88.950692    81.275698    1595.2901   0.11362475   0.11107253     0.151369   0.37606629    0.0248397  0.024144489  0.051615534   0.10059972 
  598000   -1796590.7    12090.722    -1999.126    77.032961    88.950692    81.275698    1602.6642   0.11436647   0.11049622   0.15282605   0.37768873  0.025621253  0.024569813  0.052225752   0.10241682 
  599000   -1796567.3    12112.749   -1233.0375    77.032961    88.950692    81.275698     1605.584   0.11324304   0.11062436   0.15203639   0.37590379  0.024523713  0.024340239  0.051425104   0.10028906 
  600000   -1796655.3    12063.752    -2188.932    77.032961    88.950692    81.275698    1599.0893   0.11494125    0.1112035   0.15263484   0.37877959  0.025373121  0.024341886  0.051913622   0.10162863 
  601000   -1796582.5    12013.126   -1518.8663    77.032961    88.950692    81.275698    1592.3786   0.11476846   0.11059487   0.15327741   0.37864074  0.025021089  0.024042844   0.05202784   0.10109177 
  602000   -1796551.1    12136.738   -1595.3806    77.032961    88.950692    81.275698    1608.7638   0.11464978   0.10993164   0.15385773   0.37843915  0.025090821  0.024789468  0.052215424   0.10209571 
  603000   -1796567.2    12081.286   -2013.4996    77.032961    88.950692    81.275698    1601.4134   0.11444448   0.11175218   0.15374359   0.37994025  0.024318845  0.024406332  0.051111242  0.099836419 
  604000   -1796593.5    11999.708   -2694.0965    77.032961    88.950692    81.275698       1590.6   0.11356194   0.11124945   0.15172957   0.37654096  0.024836379   0.02409087  0.049023543  0.097950791 
  605000   -1796607.8     11997.51   -1824.3957    77.032961    88.950692    81.275698    1590.3087   0.11608261   0.11139985   0.15340194    0.3808844  0.024930736  0.024072465   0.05143326   0.10043646 
  606000     -1796557    12105.003   -1473.8943    77.032961    88.950692    81.275698    1604.5573   0.11520533   0.11212162   0.15215109   0.37947803  0.025095586   0.02403272  0.050571324   0.09969963 
  607000     -1796601    12060.646   -1980.0359    77.032961    88.950692    81.275698    1598.6776   0.11517198   0.11087086   0.15378782   0.37983065  0.025444248  0.024291448  0.051336058   0.10107175 
  608000   -1796544.4    12083.556   -1739.1823    77.032961    88.950692    81.275698    1601.7144   0.11543141    0.1120399   0.15390345   0.38137476  0.024629676  0.023789812  0.051663034   0.10008252 
  609000   -1796612.2     12031.29   -1852.0263    77.032961    88.950692    81.275698    1594.7863   0.11402081   0.11132188   0.15362137   0.37896405  0.024162747   0.02351719  0.051655906  0.099335843 
  610000   -1796523.8    11986.837   -1744.4835    77.032961    88.950692    81.275698    1588.8939    0.1166071   0.11108378   0.15430829   0.38199918  0.025837606  0.024326015  0.052703801   0.10286742 
  611000   -1796633.4    11995.159   -1809.1757    77.032961    88.950692    81.275698    1589.9971   0.11587365    0.1111081     0.152897   0.37987875  0.024959074  0.024123911  0.050640496  0.099723481 
  612000   -1796574.6    12055.108   -2118.9191    77.032961    88.950692    81.275698    1597.9435    0.1151992   0.11229371   0.15360912   0.38110202  0.024522428  0.023663524  0.052768405   0.10095436 
  613000   -1796580.9    11972.347    -1920.817    77.032961    88.950692    81.275698    1586.9732   0.11478686   0.11160836   0.15420558    0.3806008  0.024526124  0.023813422   0.05227263   0.10061218 
  614000     -1796522    12110.442   -1273.6396    77.032961    88.950692    81.275698    1605.2782   0.11534037   0.11166152   0.15399466   0.38099655  0.025086552  0.023766841   0.05189438   0.10074777 
  615000   -1796520.9    12083.541   -994.32814    77.032961    88.950692    81.275698    1601.7124   0.11684014    0.1113771   0.15497402   0.38319125  0.025692949  0.023899866   0.05321527   0.10280809 
  616000   -1796562.7    12026.452   -1971.8377    77.032961    88.950692    81.275698     1594.145   0.11507469   0.11300122    0.1546996   0.38277551  0.024530739  0.024435178  0.053544024   0.10250994 
  617000   -1796674.2    12059.022   -1610.9978    77.032961    88.950692    81.275698    1598.4623   0.11519734   0.11092455   0.15394743   0.38006931  0.024453622  0.023904305  0.052350466   0.10070839 
  618000     -1796536    12084.839   -1449.2434    77.032961    88.950692    81.275698    1601.8845    0.1154358   0.11198914   0.15475147    0.3821764  0.024981525  0.023974708  0.053650647   0.10260688 
  619000   -1796569.2    12072.386   -1846.5504    77.032961    88.950692    81.275698    1600.2337   0.11574263   0.11225778   0.15461951   0.38261992  0.025175725  0.023681311  0.054367289   0.10322433 
  620000   -1796557.4    12099.933   -1955.1219    77.032961    88.950692    81.275698    1603.8851   0.11682484   0.11258934   0.15591794   0.38533213  0.025484735  0.024425319  0.054699872   0.10460993 
  621000   -1796576.8    12077.976   -1582.3379    77.032961    88.950692    81.275698    1600.9747   0.11629806   0.11338269   0.15652864   0.38620939  0.025131838  0.024009254  0.053107478   0.10224857 
  622000   -1796567.7    12131.567   -1407.4404    77.032961    88.950692    81.275698    1608.0783   0.11569351   0.11342943   0.15663988   0.38576282  0.025170216  0.024510665  0.054922523    0.1046034 
  623000   -1796586.1    12077.164    -1976.553    77.032961    88.950692    81.275698    1600.8671   0.11629403   0.11344602   0.15694948   0.38668953  0.025777921  0.024180026  0.052579853    0.1025378 
  624000   -1796564.5    12125.943   -1603.0057    77.032961    88.950692    81.275698    1607.3329    0.1174454   0.11376068   0.15673221   0.38793829  0.024535668  0.024057851  0.052249902   0.10084342 
  625000   -1796570.4    12007.873   -1907.5705    77.032961    88.950692    81.275698    1591.6823   0.11613996    0.1138433   0.15645256   0.38643582  0.024856667  0.024312519  0.053360552   0.10252974 
  626000   -1796557.6    12084.141   -1494.7174    77.032961    88.950692    81.275698    1601.7919   0.11765347   0.11443376   0.15645501   0.38854224  0.025431658  0.023622279   0.05230371   0.10135765 
  627000   -1796536.5    12108.852   -1062.8254    77.032961    88.950692    81.275698    1605.0674   0.11758845   0.11450031   0.15934527   0.39143403  0.024901138  0.024024052  0.054552353   0.10347754 
  628000     -1796561    12046.879   -1912.9882    77.032961    88.950692    81.275698    1596.8527   0.11822275   0.11490652   0.15754404   0.39067331  0.025721317  0.024313726  0.053924786   0.10395983 
  629000   -1796600.2    12105.285   -1613.4384    77.032961    88.950692    81.275698    1604.5946    0.1188518   0.11457786   0.15759005    0.3910197   0.02589295  0.023762106  0.052663523   0.10231858 
  630000     -1796513    12048.789   -1086.7552    77.032961    88.950692    81.275698    1597.1059   0.11799142   0.11482478   0.15738153   0.39019773  0.024979719  0.023926548  0.053313609   0.10221988 
  631000   -1796654.9    12074.935   -2217.2591    77.032961    88.950692    81.275698    1600.5716    0.1173563    0.1146397   0.15787907   0.38987508  0.025491594  0.023209434  0.053440379   0.10214141 
  632000   -1796621.2    12052.329   -2035.8597    77.032961    88.950692    81.275698    1597.5752   0.11806643    0.1157298   0.15805467   0.39185089  0.025609114  0.023772475  0.053487831   0.10286942 
  633000   -1796450.7    12057.667   -1183.0319    77.032961    88.950692    81.275698    1598.2827     0.117157   0.11504359   0.16054001    0.3927406  0.025059954  0.023797268  0.054707834   0.10356506 
  634000   -1796630.5    12095.851   -2134.9832    77.032961    88.950692    81.275698    1603.3441   0.11810678   0.11540388    0.1590311   0.39254176  0.024806205  0.023971816  0.054738224   0.10351624 
  635000   -1796539.2    12024.677   -1763.3398    77.032961    88.950692    81.275698    1593.9097   0.11930576   0.11540486   0.15822459   0.39293521  0.026559922  0.024038446  0.053598523   0.10419689 
  636000   -1796596.5    12118.383   -1701.8728    77.032961    88.950692    81.275698    1606.3308    0.1176095   0.11537698   0.15970355   0.39269003  0.025164553  0.024109792  0.056175469   0.10544981 
  637000   -1796530.5    12088.285   -1195.3168    77.032961    88.950692    81.275698    1602.3413   0.11784533   0.11425582   0.15871551   0.39081666  0.024932502  0.023814902  0.054457966   0.10320537 
  638000   -1796663.6    12084.621   -1917.3044    77.032961    88.950692    81.275698    1601.8556   0.11799927   0.11527433   0.15838978   0.39166338  0.025435229  0.024001094  0.054938826   0.10437515 
  639000   -1796643.2    12045.887   -1411.1045    77.032961    88.950692    81.275698    1596.7212    0.1174916   0.11521334   0.15850776   0.39121271  0.024472349  0.024040911  0.054024201   0.10253746 
  640000   -1796594.2    12084.074   -2028.1184    77.032961    88.950692    81.275698     1601.783   0.11747248   0.11554521    0.1598253   0.39284299  0.024423478  0.024010676  0.054613474   0.10304763 
  641000   -1796467.3    12122.972   -958.93254    77.032961    88.950692    81.275698    1606.9391   0.11736734    0.1155275   0.15862824   0.39152308  0.024759789  0.024584719  0.054970569   0.10431508 
  642000     -1796617    12083.814   -2104.4065    77.032961    88.950692    81.275698    1601.7485   0.11806475    0.1151468   0.15793479   0.39114634  0.025693527  0.024233056   0.05290326   0.10282984 
  643000   -1796662.5    12147.749   -2046.5327    77.032961    88.950692    81.275698    1610.2233   0.11732232   0.11613833    0.1600209   0.39348155  0.024896239  0.023836131  0.054633281   0.10336565 
  644000   -1796544.1    12100.634   -1484.8553    77.032961    88.950692    81.275698    1603.9781   0.11853369   0.11702043   0.15834251   0.39389662  0.024566623   0.02414957  0.052716886   0.10143308 
  645000   -1796588.5    12050.045   -1543.9893    77.032961    88.950692    81.275698    1597.2723   0.11889972   0.11644021   0.15924935   0.39458928  0.025759379  0.024199262  0.053679843   0.10363848 
  646000   -1796533.5    12117.676   -1803.6891    77.032961    88.950692    81.275698    1606.2371    0.1169716   0.11584536   0.15839955   0.39121651  0.024275424   0.02437646  0.053750743   0.10240263 
  647000   -1796609.8    12093.373   -1837.8164    77.032961    88.950692    81.275698    1603.0156   0.11932004   0.11599938   0.16064745   0.39596686  0.026509784  0.024478584  0.055787514   0.10677588 
  648000   -1796447.8    12053.254   -1247.3251    77.032961    88.950692    81.275698    1597.6977   0.11786053   0.11600431   0.15963611   0.39350095  0.024785053   0.02393669  0.053076684   0.10179843 
  649000   -1796617.5    12080.129   -2150.1887    77.032961    88.950692    81.275698    1601.2601   0.11722858   0.11640096   0.15892322   0.39255276  0.024601223   0.02364699  0.053478252   0.10172647 
  650000   -1796618.6    12040.195   -1607.2606    77.032961    88.950692    81.275698    1595.9668   0.11809801   0.11630914   0.15931191   0.39371906  0.024516894  0.024668564  0.054601252   0.10378671 
  651000   -1796464.8    12015.379   -1876.2279    77.032961    88.950692    81.275698    1592.6773   0.11942153   0.11603887   0.16032994   0.39579034  0.025274107  0.023293559   0.05512234   0.10369001 
  652000   -1796582.1    11999.721   -1818.3464    77.032961    88.950692    81.275698    1590.6018   0.11925844   0.11559705   0.15920426   0.39405976  0.025749729  0.024022194  0.054496102   0.10426803 
  653000     -1796602    12086.524   -1597.2207    77.032961    88.950692    81.275698    1602.1078    0.1192673   0.11679708   0.16231361   0.39837799  0.024438446  0.024088044  0.055789251   0.10431574 
  654000   -1796562.5    12043.018   -1816.8953    77.032961    88.950692    81.275698    1596.3409   0.12036374   0.11668058    0.1608928   0.39793712  0.025861191  0.023711323  0.053030674   0.10260319 
  655000   -1796522.9    12082.901   -1630.9297    77.032961    88.950692    81.275698    1601.6276   0.11982085   0.11759582   0.16010465   0.39752131  0.025739395  0.023998251   0.05353477   0.10327242 
  656000   -1796533.6    12021.096    -1661.929    77.032961    88.950692    81.275698    1593.4351   0.11867563   0.11793839   0.16081603   0.39743005  0.025147923  0.023765058  0.054022418    0.1029354 
  657000   -1796618.9    12072.419   -1862.8719    77.032961    88.950692    81.275698    1600.2382   0.12007152   0.11765657   0.15888624   0.39661433  0.026260414  0.023825094  0.053494373   0.10357988 
  658000   -1796550.8    12041.531   -1427.1107    77.032961    88.950692    81.275698    1596.1438     0.120102   0.11696253   0.15998375   0.39704829  0.024857916  0.023665755  0.054657056   0.10318073 
  659000   -1796564.3     12095.98   -2091.4487    77.032961    88.950692    81.275698    1603.3612    0.1201486   0.11708291   0.16051285   0.39774436  0.025367989  0.024028403  0.053755563   0.10315196 
  660000   -1796561.1     11995.11   -2260.5833    77.032961    88.950692    81.275698    1589.9906   0.11971804   0.11765295   0.15947177   0.39684276  0.024836922  0.024023964  0.053680439   0.10254132 
  661000   -1796628.9     12108.79   -1980.6662    77.032961    88.950692    81.275698    1605.0592   0.11971571   0.11772655   0.15871445   0.39615671  0.025089274  0.024846719  0.052316443   0.10225244 
  662000   -1796571.6    12076.619   -1737.2267    77.032961    88.950692    81.275698    1600.7949    0.1214234   0.11653115   0.15887322   0.39682776  0.025275057  0.023629557  0.053101587    0.1020062 
  663000     -1796584    12061.387   -2217.7708    77.032961    88.950692    81.275698    1598.7758   0.12056644   0.11679556    0.1600048    0.3973668  0.025198912  0.023913102  0.054217751   0.10332977 
  664000     -1796533    12054.362   -1337.6296    77.032961    88.950692    81.275698    1597.8446   0.12136132   0.11903635    0.1609766   0.40137427  0.025335347  0.024875733  0.053928395   0.10413947 
  665000   -1796576.5    12058.901   -1501.3408    77.032961    88.950692    81.275698    1598.4463   0.12166123   0.11807859   0.15930137   0.39904119  0.025596891  0.024392277  0.053242678   0.10323185 
  666000   -1796569.4    12040.645   -1755.9485    77.032961    88.950692    81.275698    1596.0264   0.12016607   0.11759723   0.16057636   0.39833966   0.02448878  0.024003746  0.053248807   0.10174133 
  667000   -1796533.6    12047.657    -1319.774    77.032961    88.950692    81.275698    1596.9558   0.12197519   0.11715258   0.16057634   0.39970411  0.025951651   0.02418678  0.054027607   0.10416604 
  668000     -1796659    12066.011   -1684.7286    77.032961    88.950692    81.275698    1599.3887   0.11975943   0.11848708    0.1611415   0.39938801   0.02428158  0.024337494  0.053549249   0.10216832 
  669000   -1796584.7    12077.724    -1669.057    77.032961    88.950692    81.275698    1600.9413   0.12126689   0.11698971   0.15989023   0.39814682  0.024092815  0.023601031  0.053446843   0.10114069 
  670000   -1796595.5    12081.111   -1952.3964    77.032961    88.950692    81.275698    1601.3903   0.12080775   0.11764728   0.16096552   0.39942054  0.025395612  0.024271014  0.052525212   0.10219184 
  671000   -1796537.1    12053.688   -1431.9235    77.032961    88.950692    81.275698    1597.7553   0.12025289    0.1177897    0.1596638   0.39770639  0.024966791  0.024140261  0.052445341   0.10155239 
  672000   -1796590.6    12067.269   -2086.7205    77.032961    88.950692    81.275698    1599.5555   0.12136313   0.11724265   0.16232237   0.40092816  0.025615144  0.023358693  0.053882227   0.10285606 
  673000   -1796553.1    12156.491   -1577.0443    77.032961    88.950692    81.275698    1611.3822   0.12086725   0.11810373     0.160071   0.39904198   0.02476842   0.02393767  0.052129553   0.10083564 
  674000   -1796529.6    12043.827   -1510.5913    77.032961    88.950692    81.275698    1596.4481   0.12144187    0.1197689   0.16252246   0.40373323  0.025237263   0.02473303   0.05302064   0.10299093 
  675000   -1796525.8    11956.644   -1933.5932    77.032961    88.950692    81.275698    1584.8918   0.12086014   0.11877102   0.16260308   0.40223423  0.025031099  0.024725554  0.053507704   0.10326436 
  676000   -1796561.2    12147.025   -1454.1131    77.032961    88.950692    81.275698    1610.1273   0.12242391   0.11888075   0.15989785   0.40120252  0.025423831  0.023310238  0.052398138   0.10113221 
  677000   -1796613.4    12098.047   -1828.5087    77.032961    88.950692    81.275698    1603.6352   0.12138959   0.11819899   0.16242489   0.40201347  0.025092271  0.023875934  0.053375526   0.10234373 
  678000   -1796636.3    12113.363   -2493.2857    77.032961    88.950692    81.275698    1605.6654    0.1218734   0.11865821   0.15992415   0.40045576  0.024050456   0.02391824  0.052162636   0.10013133 
  679000   -1796534.6    12004.903   -1357.9443    77.032961    88.950692    81.275698    1591.2887   0.12382828   0.11967747    0.1627232   0.40622895  0.025984103  0.024045489  0.052624911    0.1026545 
  680000   -1796619.6    12089.587   -1992.0209    77.032961    88.950692    81.275698    1602.5138   0.12209288   0.11955513   0.16192362   0.40357164  0.024510539  0.024401219  0.053241374   0.10215313 
  681000   -1796520.8    12111.185   -1249.0605    77.032961    88.950692    81.275698    1605.3767   0.12268702   0.11942131    0.1629098   0.40501813  0.025067421  0.024947793  0.054574419   0.10458963 
  682000   -1796545.1    12020.718   -1593.8968    77.032961    88.950692    81.275698     1593.385   0.12252252    0.1195075   0.16234089   0.40437091  0.025233981  0.024229434  0.054797561   0.10426098 
  683000   -1796558.9     12050.75   -1755.6662    77.032961    88.950692    81.275698    1597.3659   0.12178551   0.11898836   0.16313096   0.40390483  0.024280537  0.023474817  0.053846729   0.10160208 
  684000   -1796582.2    12041.806   -1904.2171    77.032961    88.950692    81.275698    1596.1803   0.12306294   0.12027347   0.16452178   0.40785819   0.02524581  0.024833021  0.055877409   0.10595624 
  685000   -1796630.5    12060.007    -2248.259    77.032961    88.950692    81.275698    1598.5929   0.12400764   0.11896925   0.16264891   0.40562581  0.024551353  0.024475865  0.053618717   0.10264594 
  686000   -1796631.1     12070.26   -2282.2806    77.032961    88.950692    81.275698    1599.9519   0.12235037   0.11814823   0.16366707   0.40416567   0.02504991  0.023934117  0.054050247   0.10303427 
  687000   -1796606.9    12067.445   -2334.4773    77.032961    88.950692    81.275698    1599.5788   0.12283621   0.11829699   0.16238853   0.40352174  0.025046875  0.024293791  0.054355871   0.10369654 
  688000   -1796621.9     12096.02   -1897.6977    77.032961    88.950692    81.275698    1603.3665   0.12344893   0.11970131   0.16141696   0.40456719  0.025055869  0.024781618   0.05214175   0.10197924 
  689000   -1796580.4    12006.191   -2229.9497    77.032961    88.950692    81.275698    1591.4594   0.12410489   0.11825357   0.16372175   0.40608021  0.025452714   0.02350357  0.055173339   0.10412962 
  690000   -1796569.9    12069.225    -1620.784    77.032961    88.950692    81.275698    1599.8147    0.1234911    0.1186395    0.1638062   0.40593679  0.024753556  0.024291402  0.053974546    0.1030195 
  691000   -1796577.6    12027.626   -1738.0316    77.032961    88.950692    81.275698    1594.3006   0.12514711   0.11940066   0.16535671   0.40990448  0.025704368  0.024929996  0.054713787   0.10534815 
  692000   -1796584.1    12012.236   -1817.0657    77.032961    88.950692    81.275698    1592.2607   0.12332365   0.11833124   0.16361102   0.40526591  0.024639308  0.023974843  0.054276387   0.10289054 
  693000   -1796602.5    12023.306    -1833.007    77.032961    88.950692    81.275698    1593.7281   0.12450816   0.11952796   0.16510573   0.40914185  0.025718801   0.02439157  0.054011622   0.10412199 
  694000   -1796532.6    12043.412   -1372.7623    77.032961    88.950692    81.275698    1596.3932   0.12484569    0.1198642   0.16416692   0.40887681   0.02545693  0.024494303  0.054637914   0.10458915 
  695000   -1796603.9    12037.478   -2140.1787    77.032961    88.950692    81.275698    1595.6066   0.12342023   0.12011445   0.16416784   0.40770251  0.024992974  0.023883794  0.052348792   0.10122556 
  696000   -1796639.7    12135.434    -1554.953    77.032961    88.950692    81.275698    1608.5909   0.12405109    0.1197134   0.16726191    0.4110264  0.024526472  0.023967331  0.055354811   0.10384861 
  697000   -1796581.9    12081.385   -1861.1249    77.032961    88.950692    81.275698    1601.4266   0.12467141   0.12037347   0.16513818   0.41018306   0.02441753  0.023859485  0.053007861   0.10128488 
  698000   -1796583.3    12012.985   -1601.2847    77.032961    88.950692    81.275698      1592.36   0.12551558   0.12132523    0.1679143   0.41475511  0.025591213  0.024562038   0.05655091   0.10670416 
  699000   -1796614.9     12037.99   -2441.2784    77.032961    88.950692    81.275698    1595.6744   0.12511157   0.12047059   0.16534651   0.41092867  0.024714788  0.023488079  0.053601632    0.1018045 
  700000   -1796586.9    12057.905   -1730.0722    77.032961    88.950692    81.275698    1598.3142   0.12607526   0.12159412   0.16612033   0.41378972   0.02494505  0.024140085  0.054003281   0.10308842 
  701000     -1796579    12185.498   -1524.6872    77.032961    88.950692    81.275698    1615.2271   0.12659934   0.12178991     0.166334   0.41472324  0.025682931  0.024453845  0.054039415   0.10417619 
  702000   -1796610.9    12079.146   -1802.9795    77.032961    88.950692    81.275698    1601.1298    0.1256554   0.12098734   0.16591534   0.41255808  0.024603941  0.024097912  0.054763669   0.10346552 
  703000   -1796505.9    12156.879   -1243.9733    77.032961    88.950692    81.275698    1611.4336   0.12700165    0.1211018   0.16924439   0.41734784  0.025692848  0.023674045  0.055335641   0.10470253 
  704000   -1796555.2    12043.937   -1408.8639    77.032961    88.950692    81.275698    1596.4627   0.12632124   0.12173235   0.16567015   0.41372374  0.025114124  0.024052086  0.054008745   0.10317495 
  705000   -1796545.5    12043.803   -1228.7072    77.032961    88.950692    81.275698     1596.445   0.12495658    0.1224388   0.16888175   0.41627712  0.024656261  0.024231292  0.055817984   0.10470554 
  706000   -1796634.1    12070.235   -1887.8114    77.032961    88.950692    81.275698    1599.9486   0.12529059   0.12149064   0.16600329   0.41278452  0.025180625   0.02417136  0.053713812    0.1030658 
  707000   -1796535.3    12049.683    -1353.541    77.032961    88.950692    81.275698    1597.2243   0.12622305   0.12277769   0.16787529   0.41687603  0.024918865  0.024306762  0.054738761   0.10396439 
  708000   -1796533.4     12056.05   -739.09721    77.032961    88.950692    81.275698    1598.0684   0.12617365   0.12227809   0.16901468   0.41746642  0.025129656  0.024391703  0.055247175   0.10476853 
  709000   -1796522.2    11987.604   -1888.5189    77.032961    88.950692    81.275698    1588.9956   0.12588041   0.12179357   0.16758357   0.41525755  0.024534239  0.023572616  0.052747188   0.10085404 
  710000   -1796588.2    12082.578   -1677.1917    77.032961    88.950692    81.275698    1601.5847   0.12669239   0.12210922   0.16789254   0.41669415  0.025814827  0.023666991  0.054878078    0.1043599 
  711000   -1796618.3    12097.855   -1772.1522    77.032961    88.950692    81.275698    1603.6098   0.12524563   0.12241486   0.16626265   0.41392314  0.024693697  0.024223024  0.053250679    0.1021674 
  712000   -1796592.2    12008.848   -1835.4821    77.032961    88.950692    81.275698    1591.8116   0.12516772   0.12271383   0.16990717   0.41778871  0.024844989  0.024265964  0.055472084   0.10458304 
  713000   -1796567.8    12106.781   -1407.5456    77.032961    88.950692    81.275698    1604.7929   0.12605442   0.12315732   0.16787581   0.41708756  0.025816539  0.024110982  0.053699467   0.10362699 
  714000     -1796569    12051.044   -2051.8334    77.032961    88.950692    81.275698    1597.4048   0.12514468    0.1224062   0.16667646   0.41422734  0.024056047  0.024167012  0.053348929   0.10157199 
  715000   -1796610.6    12100.771   -2244.0989    77.032961    88.950692    81.275698    1603.9963   0.12489165   0.12262658   0.16895509   0.41647331  0.025082995  0.024841167  0.054343197   0.10426736 
  716000   -1796659.6    11997.555   -2780.3907    77.032961    88.950692    81.275698    1590.3147   0.12673232    0.1225307   0.16641262   0.41567565  0.025552281  0.024288602  0.053477375   0.10331826 
  717000   -1796524.5    12110.106   -1314.4386    77.032961    88.950692    81.275698    1605.2336   0.12748377   0.12224471   0.16919084   0.41891933  0.025804182  0.024421982  0.054742755   0.10496892 
  718000   -1796624.7    12075.678   -1664.7862    77.032961    88.950692    81.275698    1600.6701   0.12727551   0.12273051   0.16950538   0.41951141  0.026273886  0.024393572  0.054692604   0.10536006 
  719000     -1796573    12014.336   -1698.9782    77.032961    88.950692    81.275698     1592.539   0.12662852   0.12197255   0.16929644   0.41789751  0.024842469  0.024319645  0.055740865   0.10490298 
  720000   -1796564.6    12055.741   -1508.7439    77.032961    88.950692    81.275698    1598.0274   0.12694136   0.12267918   0.16841341   0.41803394  0.025785102  0.024285132  0.054130062    0.1042003 
  721000   -1796568.9    12077.312   -1281.1495    77.032961    88.950692    81.275698    1600.8867   0.12682991   0.12434619   0.16962213   0.42079822  0.025629954  0.024963564  0.056951951   0.10754547 
  722000   -1796623.8    12105.034   -1861.3297    77.032961    88.950692    81.275698    1604.5613   0.12695233   0.12340327   0.16758974   0.41794533  0.025767817  0.024174124  0.053811147   0.10375309 
  723000     -1796534    12064.165   -1461.3126    77.032961    88.950692    81.275698     1599.144    0.1266459    0.1248025   0.16850862   0.41995701  0.025139016  0.024701938  0.055565005   0.10540596 
  724000   -1796525.1     12115.12   -1542.8687    77.032961    88.950692    81.275698    1605.8982   0.12583922   0.12235548   0.16898705   0.41718175  0.024787719  0.024236224  0.056070446   0.10509439 
  725000   -1796581.1    12133.087   -1939.5708    77.032961    88.950692    81.275698    1608.2799   0.12678574   0.12291926   0.17052938   0.42023438  0.025742412  0.024000373  0.055713578   0.10545636 
  726000   -1796636.3     12080.67   -1993.0964    77.032961    88.950692    81.275698    1601.3318   0.12648151   0.12358951   0.16767921   0.41775023  0.024960628  0.024655961  0.054144725   0.10376131 
  727000   -1796642.5    12082.464   -1957.7931    77.032961    88.950692    81.275698    1601.5696   0.12647466   0.12348043    0.1700651   0.42002019  0.024547713  0.024192219  0.054984174   0.10372411 
  728000     -1796609    11993.575   -1980.7179    77.032961    88.950692    81.275698    1589.7871   0.12500264    0.1233276      0.16945   0.41778024   0.02486707  0.023943082  0.052721711   0.10153186 
  729000   -1796558.9      12101.1   -1183.2516    77.032961    88.950692    81.275698    1604.0399   0.12597912   0.12322641   0.16940969   0.41861522  0.025119767  0.023645936  0.053772238   0.10253794 
  730000   -1796588.9    12077.122   -2254.4713    77.032961    88.950692    81.275698    1600.8615   0.12521365   0.12375262   0.16975916   0.41872543  0.025006967  0.024175114    0.0539418   0.10312388 
  731000   -1796605.6    12051.894   -2132.6788    77.032961    88.950692    81.275698    1597.5175   0.12620378   0.12352159   0.17021469   0.41994005  0.025952222  0.024328149   0.05219199   0.10247236 
  732000   -1796555.8     11943.48   -1790.9372    77.032961    88.950692    81.275698    1583.1469   0.12591672   0.12442995   0.17041675   0.42076342  0.025395227  0.023722009  0.052808048   0.10192528 
  733000     -1796637    12090.263   -1747.5315    77.032961    88.950692    81.275698    1602.6033     0.125278   0.12296135   0.16965469   0.41789404  0.024308136  0.023737751  0.051549305  0.099595192 
  734000   -1796605.6    12101.605   -1942.4824    77.032961    88.950692    81.275698    1604.1068   0.12584681   0.12345913   0.17127279   0.42057872  0.025050018   0.02384256   0.05227919   0.10117177 
  735000     -1796560    12040.279   -1326.8219    77.032961    88.950692    81.275698    1595.9779   0.12721404   0.12510441   0.17099488   0.42331332   0.02554776  0.024506608   0.05380459   0.10385896 
  736000     -1796565     12082.84   -1296.1306    77.032961    88.950692    81.275698    1601.6194    0.1263297   0.12461695   0.16960382   0.42055048  0.024822869  0.023934288  0.051546668   0.10030382 
  737000   -1796614.4    12060.945   -1801.8827    77.032961    88.950692    81.275698    1598.7173   0.12582373   0.12381925   0.17340119   0.42304417  0.024468138  0.024599268  0.052991682   0.10205909 
  738000   -1796515.3    12028.364   -2057.4075    77.032961    88.950692    81.275698    1594.3985   0.12645008   0.12625657   0.17148395   0.42419059  0.024880058  0.024461405  0.052943552   0.10228501 
  739000   -1796510.6      12056.6   -1630.6931    77.032961    88.950692    81.275698    1598.1413   0.12722714   0.12555333   0.17319333   0.42597379  0.025205267  0.023990642  0.054263205   0.10345911 
  740000   -1796597.8    12079.346   -1817.1593    77.032961    88.950692    81.275698    1601.1563   0.12540727   0.12431844   0.17136599   0.42109169  0.025053022  0.024752774  0.053149144   0.10295494 
  741000   -1796631.4    12055.446   -2156.4088    77.032961    88.950692    81.275698    1597.9883   0.12802781   0.12477761   0.17237182   0.42517723   0.02597647  0.024161096  0.053559954   0.10369752 
  742000   -1796568.4     12078.43    -2018.655    77.032961    88.950692    81.275698     1601.035   0.12708969   0.12611754   0.17261629   0.42582352  0.025031657  0.024091271  0.054026048   0.10314898 
  743000   -1796578.4    12077.061   -1491.2741    77.032961    88.950692    81.275698    1600.8535   0.12642811   0.12565744   0.17324004   0.42532559  0.024645575  0.024944349  0.053840977    0.1034309 
  744000   -1796542.6    12118.616   -1850.9344    77.032961    88.950692    81.275698    1606.3617   0.12648634    0.1261391   0.17516119   0.42778663  0.025101418  0.024391528  0.054613038   0.10410598 
  745000   -1796557.1    12059.168   -1429.1963    77.032961    88.950692    81.275698    1598.4817   0.12649991   0.12569299   0.17370469   0.42589759  0.024718854  0.024245861  0.054094343   0.10305906 
  746000   -1796620.7    12048.041   -1496.0889    77.032961    88.950692    81.275698    1597.0067   0.12672864   0.12449645     0.174106   0.42533109  0.025050654  0.023593661  0.054880592   0.10352491 
  747000   -1796627.5    12122.446   -1724.3228    77.032961    88.950692    81.275698    1606.8694   0.12778485   0.12469337   0.17449855   0.42697677  0.026504295  0.024373793  0.053200555   0.10407864 
  748000   -1796565.9    12074.224    -1547.907    77.032961    88.950692    81.275698    1600.4774   0.12647762   0.12621991   0.17585172   0.42854925   0.02462235  0.024575755  0.053640749   0.10283885 
  749000   -1796590.2    12071.655   -1953.7658    77.032961    88.950692    81.275698    1600.1368   0.12861567   0.12558492   0.17419465   0.42839524   0.02474962  0.024096489  0.055373446   0.10421956 
  750000     -1796569    12133.397   -1869.6795    77.032961    88.950692    81.275698    1608.3209   0.12772498   0.12463384    0.1740478   0.42640662  0.025366753  0.023531609  0.054454268   0.10335263 
  751000   -1796568.7    12098.524   -1634.9765    77.032961    88.950692    81.275698    1603.6985   0.12795422   0.12418531   0.17566283   0.42780236   0.02471001  0.023691462  0.054069972   0.10247144 
  752000   -1796548.5    12061.933   -1741.9032    77.032961    88.950692    81.275698    1598.8482   0.12786528   0.12500435   0.17560972   0.42847936  0.025056205   0.02389151  0.055400416   0.10434813 
  753000   -1796570.8    12124.214   -1307.4148    77.032961    88.950692    81.275698    1607.1037   0.12823748   0.12434971   0.17541577   0.42800297  0.025221854  0.023498598  0.054686519   0.10340697 
  754000   -1796624.4    12119.214    -1963.973    77.032961    88.950692    81.275698     1606.441   0.12958615   0.12501087   0.17423744   0.42883446  0.025506218  0.024508586  0.055009259   0.10502406 
  755000   -1796590.8     12055.84   -1663.4315    77.032961    88.950692    81.275698    1598.0405   0.12924959   0.12346399   0.17620216   0.42891574   0.02442539  0.024031282  0.057282648   0.10573932 
  756000   -1796691.6    12040.446   -2450.7803    77.032961    88.950692    81.275698         1596   0.12857139   0.12487808   0.17496479   0.42841426  0.024587279  0.023627283  0.054904649   0.10311921 
  757000   -1796547.8    12047.783   -1823.1398    77.032961    88.950692    81.275698    1596.9725   0.13118328   0.12528987   0.17754279   0.43401594  0.025896686  0.024410388  0.055856718   0.10616379 
  758000   -1796531.7    12090.763   -1417.3845    77.032961    88.950692    81.275698    1602.6697   0.12891272    0.1250419    0.1756376   0.42959222  0.025406585   0.02395437   0.05459742   0.10395838 
  759000   -1796585.1     12071.09   -1765.8052    77.032961    88.950692    81.275698     1600.062   0.13081651   0.12521267   0.17884708   0.43487626  0.026236429  0.023936249  0.056336173   0.10650885 
  760000   -1796533.8    12041.984   -1346.1108    77.032961    88.950692    81.275698    1596.2039   0.12991176   0.12531284   0.17692559   0.43215019   0.02575865  0.023852302  0.054481414   0.10409237 
  761000   -1796571.3     12067.48   -1534.8758    77.032961    88.950692    81.275698    1599.5835   0.12849405   0.12585855   0.17748335   0.43183595  0.024479138  0.023841662  0.056388528   0.10470933 
  762000   -1796622.3    12098.649   -1828.1887    77.032961    88.950692    81.275698     1603.715   0.12923056   0.12577878   0.17656556    0.4315749  0.025703538  0.023751453  0.055096339   0.10455133 
  763000   -1796621.6    12047.461   -1905.2214    77.032961    88.950692    81.275698    1596.9298   0.12905802   0.12596978   0.17652544   0.43155324  0.024552154  0.023830259  0.056284374   0.10466679 
  764000   -1796620.3    12088.174   -1930.8235    77.032961    88.950692    81.275698    1602.3265   0.13041409   0.12619297   0.17820074    0.4348078  0.025680653  0.024143314  0.057601983   0.10742595 
  765000   -1796567.5     12046.37   -1511.8252    77.032961    88.950692    81.275698    1596.7852   0.12929724    0.1263452   0.17709333   0.43273577  0.024514638  0.024169684   0.05455171   0.10323603 
  766000   -1796660.3    12076.012   -2222.3382    77.032961    88.950692    81.275698    1600.7144   0.13033413   0.12665359   0.17860804   0.43559576  0.024451837  0.024306216  0.057290811   0.10604886 
  767000     -1796560    12035.338   -2150.3526    77.032961    88.950692    81.275698    1595.3229   0.13199599   0.12580089   0.17728541    0.4350823  0.025859035  0.024150136  0.056188408   0.10619758 
  768000   -1796630.4    12056.234   -2359.8281    77.032961    88.950692    81.275698    1598.0927   0.13135347   0.12511007   0.17851004   0.43497358  0.025386669  0.024220235  0.054528394    0.1041353 
  769000   -1796555.5    12093.561    -1568.262    77.032961    88.950692    81.275698    1603.0405   0.13266926   0.12643235   0.17657033   0.43567193  0.026022012  0.023741694  0.054389203   0.10415291 
  770000   -1796635.4     12070.67   -2293.3821    77.032961    88.950692    81.275698    1600.0063   0.12980149   0.12617765   0.17552739   0.43150653  0.024192292  0.024579119  0.054374391    0.1031458 
  771000   -1796622.9    12115.897    -2061.841    77.032961    88.950692    81.275698    1606.0013    0.1296156   0.12638675   0.17612799   0.43213034  0.025104914  0.024162326  0.054455768   0.10372301 
  772000   -1796606.2    12022.048   -2029.4777    77.032961    88.950692    81.275698    1593.5613   0.13222987   0.12708996   0.17802138    0.4373412  0.026667809  0.023857994  0.054698008   0.10522381 
  773000   -1796579.8    12045.633   -2051.6979    77.032961    88.950692    81.275698    1596.6875    0.1307895    0.1271343   0.17655801    0.4344818  0.025236274  0.023986094   0.05525782   0.10448019 
  774000   -1796639.4    12128.782   -1900.3701    77.032961    88.950692    81.275698    1607.7093   0.13100121   0.12781205    0.1796157   0.43842897  0.026070636  0.024431044  0.055321432   0.10582311 
  775000   -1796599.4    12062.384   -1752.8749    77.032961    88.950692    81.275698     1598.908   0.12986555     0.126719   0.17728717   0.43387172   0.02482038  0.024306396  0.054918539   0.10404532 
  776000   -1796568.7    11989.934   -1865.5322    77.032961    88.950692    81.275698    1589.3044   0.13017917   0.12690792   0.17728227   0.43436936  0.024792271   0.02290439  0.054045202   0.10174186 
  777000   -1796528.8    12117.877   -1189.1513    77.032961    88.950692    81.275698    1606.2638   0.13112364   0.12682893   0.17930447   0.43725704  0.025076894  0.025506155  0.054150124   0.10473317 
  778000   -1796564.5    12070.627   -1968.5781    77.032961    88.950692    81.275698    1600.0006   0.13165614   0.12586849   0.17704337     0.434568  0.025122683  0.023727824  0.053970078   0.10282058 
  779000   -1796536.1    12143.076   -465.83893    77.032961    88.950692    81.275698    1609.6039   0.13200089   0.12684399   0.17802338   0.43686827   0.02634159  0.023751124  0.054914274   0.10500699 
  780000     -1796592     12070.19    -1831.239    77.032961    88.950692    81.275698    1599.9426     0.130121   0.12709203   0.17769128   0.43490432  0.024453368  0.024362142  0.053424315   0.10223983 
  781000   -1796602.5    11949.122   -2232.0328    77.032961    88.950692    81.275698    1583.8948   0.13037217   0.12695653   0.17884237   0.43617107  0.025291486  0.024395223  0.055738668   0.10542538 
  782000   -1796542.3    12134.739    -1188.303    77.032961    88.950692    81.275698    1608.4989   0.13035894   0.12672923   0.18024495   0.43733312  0.025537318   0.02383353   0.05493718   0.10430803 
  783000   -1796605.7     12018.97   -1906.0908    77.032961    88.950692    81.275698    1593.1533    0.1287788   0.12615758   0.17918023   0.43411661  0.023834462  0.023693963  0.055283505   0.10281193 
  784000   -1796491.9    12145.968   -1433.8699    77.032961    88.950692    81.275698    1609.9873   0.13257508   0.12868962   0.18065119   0.44191589  0.027285404  0.025651538  0.055359146   0.10829609 
  785000   -1796588.8    12152.875   -1277.7144    77.032961    88.950692    81.275698    1610.9028    0.1304832   0.12819096   0.17865353   0.43732769  0.024562927  0.024241231  0.054842492   0.10364665 
  786000   -1796576.1    12054.828   -1986.5941    77.032961    88.950692    81.275698    1597.9064   0.13095134   0.12729527   0.18021979    0.4384664  0.026195202  0.023827068    0.0546127   0.10463497 
  787000   -1796652.1    12079.159    -2103.626    77.032961    88.950692    81.275698    1601.1315   0.13077763    0.1274731   0.17993566    0.4381864  0.024925245   0.02450771  0.056207038   0.10563999 
  788000   -1796513.6    12079.995   -1397.7825    77.032961    88.950692    81.275698    1601.2424   0.12938261   0.12673756   0.17720489   0.43332506  0.024627018  0.024120105  0.054583506   0.10333063 
  789000   -1796584.3    12038.372   -1165.5992    77.032961    88.950692    81.275698    1595.7251   0.13151224   0.12686112   0.18147327   0.43984662  0.025943539   0.02424352  0.056807848   0.10699491 
  790000   -1796625.3    12162.326    -1890.648    77.032961    88.950692    81.275698    1612.1556   0.13074651   0.12655951   0.18019436   0.43750038  0.024698552  0.024134158  0.055816021   0.10464873 
  791000   -1796601.4    12048.617   -1970.1115    77.032961    88.950692    81.275698    1597.0831   0.13221146   0.12673191   0.17982974   0.43877311  0.025644377  0.024360192  0.057153755   0.10715832 
  792000   -1796601.5    12101.243   -1594.5325    77.032961    88.950692    81.275698    1604.0589   0.13015043   0.12624378    0.1790788   0.43547301  0.024590529  0.023608769  0.055514893   0.10371419 
  793000   -1796552.5    12064.037   -1702.6466    77.032961    88.950692    81.275698     1599.127   0.13201483   0.12744935   0.18003536   0.43949954  0.024889119  0.024118065  0.058381758   0.10738894 
  794000   -1796624.4    12107.793   -1851.9968    77.032961    88.950692    81.275698    1604.9271   0.13095282   0.12714421   0.18019113   0.43828816  0.025275119   0.02391303  0.054984445    0.1041726 
  795000   -1796551.2     12003.51   -1765.4451    77.032961    88.950692    81.275698     1591.104   0.13152724   0.12729141     0.179187   0.43800565  0.024628041  0.024028488  0.054421202   0.10307773 
  796000   -1796527.6      12038.8   -1600.8704    77.032961    88.950692    81.275698    1595.7818   0.13135816   0.12659989   0.18182912   0.43978717  0.025559367  0.023871606  0.055676807   0.10510778 
  797000   -1796594.8    12032.555   -1794.6451    77.032961    88.950692    81.275698     1594.954   0.12959684   0.12691147   0.17929128   0.43579958  0.024718133  0.024191238  0.055132242   0.10404161 
  798000   -1796621.6    12100.738    -1988.483    77.032961    88.950692    81.275698    1603.9919   0.13003082   0.12646284   0.18191575   0.43840941  0.024924881  0.024164881  0.058632398   0.10772216 
  799000   -1796659.9    12098.379   -2212.7093    77.032961    88.950692    81.275698    1603.6791   0.13102525   0.12634879    0.1785724   0.43594643  0.025056063  0.023895298  0.055617708   0.10456907 
  800000     -1796548    11978.961   -1583.0448    77.032961    88.950692    81.275698    1587.8499   0.13085154   0.12730804   0.18034814   0.43850772  0.025035973  0.023486861  0.056902308   0.10542514 
  801000   -1796572.8    12103.689   -1836.9409    77.032961    88.950692    81.275698    1604.3831   0.13044325   0.12692598   0.18137777     0.438747  0.024938818  0.023596219  0.056048885   0.10458392 
  802000     -1796570     12112.46   -1008.5298    77.032961    88.950692    81.275698    1605.5457   0.13117752   0.12654825   0.17991939   0.43764515  0.025272174  0.023736391  0.057479659   0.10648822 
  803000   -1796587.1     12057.64   -1931.9712    77.032961    88.950692    81.275698    1598.2791   0.13176792   0.12769756   0.18131004   0.44077553  0.025380056  0.024185609   0.05799372   0.10755939 
  804000   -1796552.6    12128.078   -1204.6346    77.032961    88.950692    81.275698    1607.6159   0.13123557     0.127544   0.18194157   0.44072114  0.025060178  0.023997628  0.057341928   0.10639973 
  805000   -1796576.7    12037.594   -2159.1738    77.032961    88.950692    81.275698     1595.622   0.13216928   0.12812996   0.18228694   0.44258618  0.024627766   0.02464689   0.05818343   0.10745809 
  806000   -1796584.9    12041.106   -1709.3647    77.032961    88.950692    81.275698    1596.0875   0.13187045   0.12731469   0.18112328   0.44030843   0.02543805   0.02399906  0.056569275   0.10600638 
  807000   -1796574.1    12042.279   -1877.3038    77.032961    88.950692    81.275698     1596.243   0.13125106   0.12797639   0.18108857   0.44031603  0.024626291  0.024623203   0.05825718   0.10750667 
  808000   -1796602.3    12054.645   -2114.4669    77.032961    88.950692    81.275698    1597.8822   0.13142948   0.12733574   0.17955844   0.43832366  0.023965242  0.023587893  0.054944354   0.10249749 
  809000   -1796561.6    12068.704   -1128.8679    77.032961    88.950692    81.275698    1599.7457   0.13234008   0.12784448    0.1819742   0.44215876  0.025908314  0.024067073  0.056600118    0.1065755 
  810000   -1796509.1    12137.151   -1198.3136    77.032961    88.950692    81.275698    1608.8185    0.1319322   0.12750365   0.18258184   0.44201768  0.024637029  0.024695878  0.055881195    0.1052141 
  811000   -1796534.9    12012.786   -2018.8847    77.032961    88.950692    81.275698    1592.3335   0.13175202   0.12936897    0.1797179   0.44083889  0.024049344  0.024278494  0.054634529   0.10296237 
  812000   -1796529.8    12105.799   -976.04225    77.032961    88.950692    81.275698    1604.6628   0.13248008   0.12796996   0.18155296   0.44200299  0.025704056  0.024895843  0.054383002    0.1049829 
  813000   -1796652.2     11995.98   -2217.0011    77.032961    88.950692    81.275698    1590.1059   0.13380721   0.13023582   0.18236127   0.44640429  0.025623871  0.023786754  0.054797718   0.10420834 
  814000   -1796595.6    12027.585   -2100.4691    77.032961    88.950692    81.275698    1594.2952   0.13206181   0.12975514   0.18277879   0.44459575  0.024724173  0.025143934  0.056092672   0.10596078 
  815000   -1796608.4    12087.319   -1948.3231    77.032961    88.950692    81.275698    1602.2131   0.13175204   0.12960562   0.18238153   0.44373919  0.024628697  0.023984574   0.05402042   0.10263369 
  816000   -1796626.2    12002.854   -2117.5341    77.032961    88.950692    81.275698     1591.017   0.13279655   0.12988031   0.18219864    0.4448755  0.025193408   0.02432135  0.055299142    0.1048139 
  817000   -1796597.4    12017.566   -1488.9613    77.032961    88.950692    81.275698    1592.9672   0.13181058   0.12912498   0.18343242   0.44436798  0.024898616  0.024759282  0.055365862   0.10502376 
  818000   -1796556.9     12064.78   -1996.7703    77.032961    88.950692    81.275698    1599.2255   0.13352699   0.12980494   0.18174598   0.44507791  0.025989911  0.023631665  0.054386521    0.1040081 
  819000     -1796567    12111.384   -1130.5569    77.032961    88.950692    81.275698    1605.4031   0.13258106   0.12844584   0.18252022   0.44354713  0.024859926  0.023696279   0.05487096   0.10342716 
  820000     -1796584    12074.781   -2040.0863    77.032961    88.950692    81.275698    1600.5512   0.13251426   0.12877954   0.18237527   0.44366907  0.024533622  0.023958405  0.054794624   0.10328665 
  821000   -1796545.4    12077.811   -1900.5631    77.032961    88.950692    81.275698    1600.9529   0.13280457   0.12979587   0.18554692   0.44814735  0.025307934  0.024459481   0.05606191   0.10582933 
  822000   -1796604.3    12104.405   -2326.9634    77.032961    88.950692    81.275698     1604.478   0.13498926   0.13055079   0.18491081   0.45045086  0.025283346   0.02454631  0.054324538   0.10415419 
  823000     -1796601    12129.024   -1699.7185    77.032961    88.950692    81.275698    1607.7413   0.13321595   0.12969959   0.18327259   0.44618813  0.025348384  0.024204103  0.054675573   0.10422806 
  824000     -1796532    12050.675   -1284.6244    77.032961    88.950692    81.275698    1597.3559   0.13124765   0.12947447   0.18235439   0.44307651   0.02420564  0.024712022  0.055723527   0.10464119 
  825000   -1796602.7    12015.014   -1472.0058    77.032961    88.950692    81.275698    1592.6289    0.1335014   0.12905731   0.18144668   0.44400539  0.025548841  0.023156789  0.054802673    0.1035083 
  826000     -1796606    12119.455   -1547.9894    77.032961    88.950692    81.275698    1606.4729   0.13171457   0.13077671   0.18327472     0.445766  0.024672751  0.023939273   0.05521297   0.10382499 
  827000   -1796524.6    12050.987   -1476.2491    77.032961    88.950692    81.275698    1597.3973   0.13356519   0.12976887    0.1821917   0.44552577  0.025299957  0.025460601  0.055625865   0.10638642 
  828000   -1796606.9    12030.581   -2127.0876    77.032961    88.950692    81.275698    1594.6923   0.13399658   0.12918658   0.18677423   0.44995739  0.025671051  0.023620418  0.058700267   0.10799174 
  829000   -1796519.5    12117.879   -1654.4677    77.032961    88.950692    81.275698     1606.264   0.13385282   0.12931257   0.18376875   0.44693414  0.024449113  0.024239196  0.057045499   0.10573381 
  830000     -1796606    12024.473   -1492.1958    77.032961    88.950692    81.275698    1593.8827   0.13347855   0.12907854   0.18299929   0.44555639  0.024602589  0.024236543  0.057145565    0.1059847 
  831000   -1796581.8    12099.304   -1924.4308    77.032961    88.950692    81.275698    1603.8019   0.13293437   0.12964232   0.18446465   0.44704134  0.024443815  0.024515213  0.057683394   0.10664242 
  832000   -1796615.2    12117.227   -1815.9203    77.032961    88.950692    81.275698    1606.1776   0.13446305   0.13016753   0.18475528   0.44938586  0.025049878  0.024261626  0.056338669   0.10565017 
  833000   -1796547.4    11987.477   -2072.7527    77.032961    88.950692    81.275698    1588.9788    0.1344173   0.12997852   0.18450344   0.44889926  0.024861287  0.024725656  0.056342265   0.10592921 
  834000   -1796559.1     12079.15   -1057.2502    77.032961    88.950692    81.275698    1601.1303   0.13369506   0.13147421   0.18324135   0.44841062  0.025189793  0.026198512  0.056742215   0.10813052 
  835000   -1796566.6    12057.565   -2213.9565    77.032961    88.950692    81.275698    1598.2692   0.13427466   0.12992363   0.18394316   0.44814145  0.024922903  0.024063627  0.056668377   0.10565491 
  836000   -1796529.6    12104.014    -1956.008    77.032961    88.950692    81.275698    1604.4261   0.13435842   0.13051317   0.18536495   0.45023654  0.024928338  0.024582236  0.056577126    0.1060877 
  837000   -1796555.3     12074.82   -1773.2519    77.032961    88.950692    81.275698    1600.5564   0.13404313   0.13020633   0.18676911   0.45101856  0.024663835  0.024931305    0.0590318   0.10862694 
  838000   -1796605.9    12149.487   -1667.3992    77.032961    88.950692    81.275698    1610.4537   0.13359459   0.13036848   0.18451864   0.44848171  0.025328455  0.024214234  0.057342072   0.10688476 
  839000   -1796578.3     11966.63   -1851.7979    77.032961    88.950692    81.275698    1586.2154   0.13462696   0.13152092    0.1833339   0.44948178  0.024932368  0.025036214  0.058243132   0.10821171 
  840000   -1796635.5    12048.814   -2186.2095    77.032961    88.950692    81.275698    1597.1092   0.13391295   0.13042452   0.18388454   0.44822201  0.024696047  0.024461127  0.057290952   0.10644812 
  841000   -1796564.9    12023.215   -1389.4439    77.032961    88.950692    81.275698     1593.716   0.13411624   0.13172506   0.18471335   0.45055466  0.024778957  0.024819604  0.058184343    0.1077829 
  842000   -1796644.2    12040.332   -2605.0691    77.032961    88.950692    81.275698    1595.9849   0.13382478   0.13027402    0.1856544    0.4497532  0.025162264  0.023757959  0.056101268   0.10502149 
  843000     -1796564    12142.802   -1415.1203    77.032961    88.950692    81.275698    1609.5676   0.13409246   0.12898612     0.186458   0.44953658  0.024371839  0.024293287  0.058105388   0.10677051 
  844000   -1796564.2    12071.786   -2031.8621    77.032961    88.950692    81.275698    1600.1543   0.13413805    0.1312536   0.18552119   0.45091284  0.025289435  0.024136192  0.057071988   0.10649761 
  845000     -1796572    12043.456   -1771.0804    77.032961    88.950692    81.275698    1596.3989   0.13535965   0.13057183   0.18309162    0.4490231  0.025462473  0.024089645  0.056085223   0.10563734 
  846000   -1796607.3    12061.041   -1900.4338    77.032961    88.950692    81.275698      1598.73   0.13247771   0.13118998   0.18574594   0.44941363  0.024391075  0.024701431  0.058384834   0.10747734 
  847000   -1796586.6    12062.851   -1508.6698    77.032961    88.950692    81.275698    1598.9698   0.13401477   0.13066969   0.18689593   0.45158039  0.025111447  0.023927739  0.055841437   0.10488062 
  848000   -1796559.1     12032.58   -1375.4886    77.032961    88.950692    81.275698    1594.9573   0.13393589   0.13081711   0.18592713   0.45068014  0.025231498  0.024317585  0.055684341   0.10523342 
  849000   -1796551.6    12013.821   -1710.5545    77.032961    88.950692    81.275698    1592.4708   0.13423074   0.13102182   0.18632099   0.45157354  0.025081886  0.024132854  0.056829539   0.10604428 
  850000     -1796534     12050.39   -1248.9233    77.032961    88.950692    81.275698    1597.3181    0.1341481   0.13077899   0.18513505   0.45006214  0.024887377  0.023953071  0.056790838   0.10563129 
  851000   -1796679.4    12084.501    -1977.005    77.032961    88.950692    81.275698    1601.8396   0.13557818   0.13071655   0.18635734   0.45265208  0.025063051  0.023918258   0.05757316   0.10655447 
  852000   -1796506.2    12101.032   -1427.8861    77.032961    88.950692    81.275698    1604.0308   0.13534409   0.13008095    0.1872869   0.45271194  0.025815317  0.023629325  0.056852922   0.10629756 
  853000   -1796597.4    12053.116   -2605.4596    77.032961    88.950692    81.275698    1597.6795   0.13432374   0.13082081   0.18760523   0.45274978  0.024763518   0.02437613  0.056642829   0.10578248 
  854000   -1796522.1    12057.896   -1128.0093    77.032961    88.950692    81.275698     1598.313   0.13432147   0.12989578   0.18846643   0.45268367  0.025000662  0.023795149  0.056003386    0.1047992 
  855000   -1796551.7    12090.313   -1397.9913    77.032961    88.950692    81.275698    1602.6101   0.13438913   0.13152029   0.18775016   0.45365958  0.025229158  0.024241736  0.056818819   0.10628971 
  856000   -1796606.3      12078.1   -1871.5684    77.032961    88.950692    81.275698    1600.9912   0.13544156   0.13195827   0.18815114   0.45555096  0.025226197  0.024089299  0.056586764   0.10590226 
  857000   -1796575.7     12058.35   -1678.0057    77.032961    88.950692    81.275698    1598.3733   0.13513227   0.13098113   0.18916534   0.45527874  0.024995631  0.023600626  0.055716432   0.10431269 
  858000   -1796567.9    12032.427   -2016.3753    77.032961    88.950692    81.275698     1594.937   0.13619847    0.1323534   0.18858647   0.45713833   0.02591677  0.024780279  0.055995256   0.10669231 
  859000   -1796583.5    12153.367   -1617.6911    77.032961    88.950692    81.275698     1610.968   0.13521936   0.13143484   0.19092229   0.45757649  0.024720151  0.023852025  0.055723127    0.1042953 
  860000     -1796576    12089.707   -1906.8769    77.032961    88.950692    81.275698    1602.5298   0.13566499   0.13147092   0.19075416   0.45789007  0.025117962  0.024168637  0.057588426   0.10687502 
  861000   -1796535.4    12016.556   -1108.1932    77.032961    88.950692    81.275698    1592.8333   0.13502604   0.13209103   0.18937685   0.45649392  0.025379768  0.023921466  0.057432293   0.10673353 
  862000     -1796590    12097.936    -1738.489    77.032961    88.950692    81.275698    1603.6205   0.13571603   0.13197903   0.19132524    0.4590203  0.024694809  0.024061036  0.056397685   0.10515353 
  863000   -1796553.7    12040.164   -1075.6394    77.032961    88.950692    81.275698    1595.9626   0.13520188   0.13175329   0.18924378   0.45619894  0.025173993  0.023934538  0.054740064   0.10384859 
  864000   -1796582.8    12026.235   -1892.8237    77.032961    88.950692    81.275698    1594.1162   0.13570351   0.13131269   0.19208147   0.45909768  0.025286205  0.023370838  0.055734925   0.10439197 
  865000   -1796624.2    12070.039   -1714.3469    77.032961    88.950692    81.275698    1599.9226   0.13452877   0.13260933    0.1899202   0.45705831   0.02535122  0.024347158  0.054933861   0.10463224 
  866000   -1796634.1    12049.897   -2056.3761    77.032961    88.950692    81.275698    1597.2528   0.13500765   0.13375054   0.19118452   0.45994271  0.025693452  0.024742831  0.055753128   0.10618941 
  867000   -1796586.3    12064.377   -1664.7579    77.032961    88.950692    81.275698    1599.1721   0.13649913   0.13303918   0.19238484   0.46192315  0.025660202  0.024424182  0.056345157   0.10642954 
  868000   -1796602.5    12088.782   -1943.2422    77.032961    88.950692    81.275698    1602.4071   0.13665125   0.13235267   0.19203226   0.46103618  0.025386292  0.024343885  0.056072311   0.10580249 
  869000   -1796592.7    12064.208   -1479.2625    77.032961    88.950692    81.275698    1599.1498   0.13522756   0.13326015   0.19222096   0.46070868  0.024570612  0.024197378  0.056416334   0.10518432 
  870000   -1796603.1    12052.118   -1988.5824    77.032961    88.950692    81.275698    1597.5471   0.13574801   0.13336497   0.19164874   0.46076172  0.024999722  0.024263009  0.056943451   0.10620618 
  871000   -1796566.6    12057.529    -1803.275    77.032961    88.950692    81.275698    1598.2644   0.13720885    0.1328192   0.19198086   0.46200891  0.025204092   0.02462158   0.05741068   0.10723635 
  872000   -1796587.4    12117.269   -1838.5682    77.032961    88.950692    81.275698    1606.1832   0.13684607   0.13291058   0.19397631   0.46373295  0.025039406  0.024545142  0.056903479   0.10648803 
  873000   -1796625.4    12105.374    -1229.341    77.032961    88.950692    81.275698    1604.6065   0.13865879   0.13299663   0.19401627   0.46567169  0.025623656  0.024058304  0.058524257   0.10820622 
  874000   -1796630.4    12132.017   -1647.5789    77.032961    88.950692    81.275698     1608.138     0.137509   0.13359984   0.19143819   0.46254703   0.02455543  0.024133312  0.057246722   0.10593546 
  875000   -1796570.9     12086.27    -1823.068    77.032961    88.950692    81.275698    1602.0741     0.137807   0.13442772   0.19464404   0.46687877  0.024909244  0.024155476  0.058192966   0.10725769 
  876000   -1796583.7    12079.326   -1862.7257    77.032961    88.950692    81.275698    1601.1536   0.13708782   0.13386493   0.19449098   0.46544373    0.0250158  0.024262383  0.058165673   0.10744386 
  877000   -1796600.4     12072.63   -1566.4005    77.032961    88.950692    81.275698     1600.266    0.1380193   0.13456993   0.19343764   0.46602687  0.024760373  0.024053775  0.057188794   0.10600294 
  878000   -1796513.4    12011.814   -1313.2535    77.032961    88.950692    81.275698    1592.2047   0.13715759   0.13444905    0.1952341   0.46684074  0.024439462   0.02359876  0.058719873    0.1067581 
  879000   -1796550.8    12022.377   -1886.7621    77.032961    88.950692    81.275698    1593.6049   0.13782733   0.13415958   0.19272261   0.46470953  0.024795643  0.023553511  0.057735438   0.10608459 
  880000   -1796545.2     12054.79   -1439.4845    77.032961    88.950692    81.275698    1597.9013   0.13877046   0.13315977   0.19471393   0.46664416  0.025030874  0.023656865  0.058905209   0.10759295 
  881000   -1796544.3    12118.899    -1700.979    77.032961    88.950692    81.275698    1606.3992   0.13928155   0.13263546    0.1938318   0.46574881  0.025786687   0.02382071    0.0582807    0.1078881 
  882000   -1796569.2     12108.16   -1551.9454    77.032961    88.950692    81.275698    1604.9757   0.13884955   0.13298116   0.19508625   0.46691696   0.02542579  0.024305972  0.058388472   0.10812023 
  883000   -1796661.2    12075.272   -1916.2414    77.032961    88.950692    81.275698    1600.6163   0.13941209   0.13399551   0.19286085   0.46626844  0.025745696  0.023850183  0.057744222    0.1073401 
  884000   -1796531.9    12007.423   -1397.1327    77.032961    88.950692    81.275698    1591.6226   0.13852422   0.13552595    0.1979682   0.47201837  0.024818188  0.024512656   0.06105159   0.11038243 
  885000   -1796617.2    12054.696   -1934.4657    77.032961    88.950692    81.275698    1597.8889   0.13897701   0.13499489   0.19622795   0.47019984  0.025615557  0.023965493  0.057818138   0.10739919 
  886000     -1796546    12161.637   -869.00025    77.032961    88.950692    81.275698    1612.0642   0.13843579   0.13554648   0.19842554   0.47240781  0.025370211  0.024985505  0.059277813   0.10963353 
  887000   -1796596.3    12044.481   -2417.8671    77.032961    88.950692    81.275698    1596.5348   0.13762476   0.13602883   0.19970385   0.47335744  0.024800589  0.024262086  0.060137617   0.10920029 
  888000     -1796560    12094.447   -1916.2577    77.032961    88.950692    81.275698     1603.158   0.13802683   0.13594614   0.19864222   0.47261518  0.024908175   0.02378351  0.059110764   0.10780245 
  889000   -1796586.1    12147.767   -1742.7596    77.032961    88.950692    81.275698    1610.2257   0.13969988   0.13641204   0.19937406   0.47548598    0.0255301  0.024261402  0.059875399    0.1096669 
  890000     -1796558    12096.284   -1299.1426    77.032961    88.950692    81.275698    1603.4016   0.13801332   0.13627531   0.19822075   0.47250938  0.024770748  0.023538952  0.058746069   0.10705577 
  891000   -1796624.8    12072.235   -1895.1901    77.032961    88.950692    81.275698    1600.2137   0.13917201   0.13595649    0.1984468    0.4735753  0.025569043  0.024553686  0.059100305   0.10922303 
  892000   -1796574.8     12076.59   -1866.0273    77.032961    88.950692    81.275698     1600.791   0.14001303   0.13604592   0.19807958   0.47413853  0.025603198  0.023911645  0.059120122   0.10863497 
  893000   -1796591.1    12038.698   -1663.2476    77.032961    88.950692    81.275698    1595.7683   0.13809905   0.13498917   0.19855603   0.47164424  0.025195944  0.023805123  0.058365765   0.10736683 
  894000   -1796588.3    12081.171   -1836.6868    77.032961    88.950692    81.275698    1601.3982   0.13891409   0.13638431   0.19860826   0.47390666  0.024324192  0.024506731  0.057668398   0.10649932 
  895000   -1796581.8    12023.858    -1463.773    77.032961    88.950692    81.275698    1593.8012   0.13937567   0.13489178   0.19855249   0.47281994  0.026123533  0.023746179  0.058377077   0.10824679 
  896000   -1796657.7    12062.692   -1898.0524    77.032961    88.950692    81.275698    1598.9488   0.13903029   0.13512216   0.19896927   0.47312172  0.024796861  0.024056017  0.057795039   0.10664792 
  897000   -1796572.5      12009.1   -1609.1225    77.032961    88.950692    81.275698     1591.845   0.13967342    0.1367043   0.19952099   0.47589871  0.024839804  0.024493481  0.058240973   0.10757426 
  898000   -1796547.9    12069.159   -1757.6265    77.032961    88.950692    81.275698     1599.806   0.13875944   0.13577613   0.20028623    0.4748218  0.025043039  0.024137124  0.056912861   0.10609302 
  899000   -1796515.9    12093.203    -2178.048    77.032961    88.950692    81.275698    1602.9931   0.13896912   0.13589192   0.19962593   0.47448698  0.024683739  0.024807411  0.059514012   0.10900516 
  900000   -1796572.1    12098.413   -1440.9702    77.032961    88.950692    81.275698    1603.6837   0.13938529   0.13571262   0.20031813   0.47541604  0.024723268  0.023073474  0.059946167   0.10774291 
  901000   -1796604.9    11976.786   -2088.5012    77.032961    88.950692    81.275698    1587.5617   0.14011725   0.13597251   0.19880168   0.47489144  0.025686913  0.023878109  0.057399904   0.10696493 
  902000   -1796611.7    12052.658   -1733.5441    77.032961    88.950692    81.275698    1597.6188   0.13821203   0.13618727   0.19863394   0.47303324  0.024341511   0.02389437  0.059213523    0.1074494 
  903000   -1796673.7    12087.704   -2040.4296    77.032961    88.950692    81.275698    1602.2643   0.13805112   0.13680138   0.19800975   0.47286224  0.024491144  0.024274943  0.058023101   0.10678919 
  904000   -1796527.7    12007.488   -1821.6555    77.032961    88.950692    81.275698    1591.6314   0.14007096   0.13641637   0.19931446    0.4758018  0.025141993  0.024072483  0.059693629    0.1089081 
  905000   -1796565.8    12063.095   -1654.4251    77.032961    88.950692    81.275698    1599.0021   0.13844762   0.13615211     0.199878   0.47447774   0.02551533  0.023915467  0.060384415   0.10981521 
  906000   -1796592.9    12065.391   -878.45226    77.032961    88.950692    81.275698    1599.3066   0.13928493    0.1363289   0.20107879   0.47669262  0.024743374   0.02421195   0.06147292   0.11042824 
  907000   -1796573.4    12041.019   -1766.2072    77.032961    88.950692    81.275698    1596.0759   0.13982491   0.13766808   0.20143929   0.47893229  0.025173518  0.024130006  0.059794473     0.109098 
  908000   -1796600.7    12054.475   -1057.3151    77.032961    88.950692    81.275698    1597.8596   0.14031053   0.13711713   0.19975176   0.47717942  0.025420833  0.024190832  0.061573224   0.11118489 
  909000   -1796559.6    12097.093   -1461.8267    77.032961    88.950692    81.275698    1603.5088   0.14003904   0.13665922   0.20094578   0.47764403  0.025293096  0.024279351  0.060430514   0.11000296 
  910000   -1796646.3    12036.998   -2071.6924    77.032961    88.950692    81.275698     1595.543   0.14006035   0.13726699   0.20089836   0.47822569  0.025376935  0.024806493  0.061560255   0.11174368 
  911000   -1796632.9    12096.737   -1702.4177    77.032961    88.950692    81.275698    1603.4616   0.14191832   0.13624899   0.20043908   0.47860639  0.026012223  0.024039496  0.060975731   0.11102745 
  912000   -1796559.4    12014.695    -1886.007    77.032961    88.950692    81.275698    1592.5866   0.14171804    0.1373076   0.20270259   0.48172823  0.025180225   0.02370329   0.06125492   0.11013844 
  913000   -1796532.1    11990.161   -1770.1267    77.032961    88.950692    81.275698    1589.3346   0.14223001   0.13700751   0.20251872   0.48175623   0.02524559   0.02489506   0.06097798   0.11111863 
  914000   -1796564.3     11972.64   -1421.8749    77.032961    88.950692    81.275698    1587.0121    0.1413015   0.13722516   0.20113877   0.47966543  0.025829373  0.023947273  0.061136525   0.11091317 
  915000     -1796509    12093.317   -1490.3419    77.032961    88.950692    81.275698    1603.0082    0.1400736   0.13639992   0.20241521   0.47888873  0.024406472  0.023639517  0.060496002   0.10854199 
  916000   -1796539.1    12174.855   -1289.6738    77.032961    88.950692    81.275698    1613.8163   0.14074991   0.13817585   0.20375361   0.48267938   0.02513681  0.024837809  0.060471781    0.1104464 
  917000   -1796541.2    12044.011    -1524.879    77.032961    88.950692    81.275698    1596.4725   0.14351803   0.13856766   0.20245623   0.48454192  0.025867198  0.024102646  0.060760045   0.11072989 
  918000   -1796637.9    12046.176   -1933.8821    77.032961    88.950692    81.275698    1596.7595   0.14132116    0.1371202   0.20340504    0.4818464  0.024133161  0.023666318  0.060277829   0.10807731 
  919000   -1796567.3    11997.092   -1496.8301    77.032961    88.950692    81.275698    1590.2533   0.14252299   0.13635698   0.20335765   0.48223762  0.024868269  0.023789145  0.059818051   0.10847546 
  920000   -1796572.2    12045.289   -1594.7809    77.032961    88.950692    81.275698     1596.642   0.14257053   0.13724062   0.20274968   0.48256083     0.024987  0.024292361  0.058777659   0.10805702 
  921000   -1796617.3    12092.421   -1453.8654    77.032961    88.950692    81.275698    1602.8895   0.14274363   0.13805694   0.20628809   0.48708866  0.025535643  0.024253258  0.058364416   0.10815332 
  922000   -1796528.8    12077.696   -1061.9342    77.032961    88.950692    81.275698    1600.9377    0.1418935   0.13765738   0.20483799   0.48438887  0.024165201  0.023847695  0.058287384   0.10630028 
  923000   -1796526.1    12090.446   -1408.7291    77.032961    88.950692    81.275698    1602.6276   0.14278628   0.13663022   0.20352674   0.48294323  0.025453391  0.023857882  0.059534886   0.10884616 
  924000     -1796566    12066.562   -1448.3175    77.032961    88.950692    81.275698    1599.4617   0.14287552   0.13754196   0.20397117   0.48438864  0.025142454  0.024215043  0.061005294   0.11036279 
  925000   -1796602.1    12138.342   -1671.6872    77.032961    88.950692    81.275698    1608.9765   0.14331133   0.13836339   0.20438484   0.48605956      0.02492  0.024484824  0.062887081   0.11229191 
  926000   -1796607.9    12019.713   -1527.4817    77.032961    88.950692    81.275698    1593.2517   0.14351349   0.13789037    0.2038539   0.48525776  0.025616245  0.024310855  0.061688561   0.11161566 
  927000   -1796521.1    12063.028   -1207.6272    77.032961    88.950692    81.275698    1598.9934   0.14423252    0.1386511   0.20493198   0.48781559  0.024819331  0.023747127  0.062054283   0.11062074 
  928000   -1796631.5    12059.824   -2060.4039    77.032961    88.950692    81.275698    1598.5687   0.14435032   0.13695093   0.20549622   0.48679747  0.025130388  0.023812825  0.063516641   0.11245985 
  929000   -1796545.1    12101.222   -1122.1554    77.032961    88.950692    81.275698    1604.0561   0.14343222   0.13836427   0.20512545   0.48692193   0.02556144  0.024120582  0.062281866   0.11196389 
  930000   -1796595.7    12051.765   -1927.7903    77.032961    88.950692    81.275698    1597.5003   0.14355433   0.13780912   0.20520656   0.48657001   0.02465507  0.024500292  0.062860183   0.11201554 
  931000     -1796562    12042.238   -1753.4447    77.032961    88.950692    81.275698    1596.2375   0.14360951   0.13848954   0.20547393   0.48757298  0.024885222  0.023764003  0.062713482   0.11136271 
  932000   -1796664.4    12063.799   -1809.7944    77.032961    88.950692    81.275698    1599.0955   0.14275544   0.13724592   0.20470059   0.48470195  0.024546174  0.023596653  0.062942054   0.11108488 
  933000   -1796599.7    12029.657    -1335.706    77.032961    88.950692    81.275698    1594.5699   0.14282462   0.13829142   0.20323845   0.48435448   0.02526241  0.024325797  0.060528659   0.11011687 
  934000   -1796569.3    12104.229   -1915.4277    77.032961    88.950692    81.275698    1604.4547    0.1436675   0.13680346   0.20540558   0.48587654  0.025065662  0.023709296  0.061874954   0.11064991 
  935000     -1796611    12159.189   -1843.7699    77.032961    88.950692    81.275698    1611.7398   0.14469446    0.1379495   0.20639962   0.48904357  0.025116906  0.023811826  0.059900899   0.10882963 
  936000   -1796595.4    12110.549   -1913.0405    77.032961    88.950692    81.275698    1605.2924   0.14508544   0.13808133   0.20641527   0.48958204  0.024683332  0.024537557  0.059477265   0.10869815 
  937000   -1796565.9    12085.236   -1432.5027    77.032961    88.950692    81.275698    1601.9371   0.14336226   0.13698693   0.20674605   0.48709524   0.02415204  0.023687043  0.059881863   0.10772095 
  938000   -1796544.7     12039.77   -1650.8062    77.032961    88.950692    81.275698    1595.9105   0.14518552   0.13774756   0.20540508   0.48833816  0.025510315  0.024018999  0.059474832   0.10900415 
  939000   -1796596.2    12060.026   -1681.2711    77.032961    88.950692    81.275698    1598.5954   0.14413835   0.13679173   0.20557158   0.48650166  0.025427438  0.023824684  0.060288815   0.10954094 
  940000   -1796531.3    12109.717   -931.38703    77.032961    88.950692    81.275698     1605.182    0.1434806    0.1387267   0.20603279   0.48824009  0.024330055  0.024591378  0.061456195   0.11037763 
  941000   -1796521.8    12042.781   -1494.2471    77.032961    88.950692    81.275698    1596.3095   0.14447342   0.13871155   0.20669079   0.48987576   0.02455793  0.023790199   0.06179248   0.11014061 
  942000   -1796526.8    12025.432   -1708.3258    77.032961    88.950692    81.275698    1594.0098   0.14493102   0.13827192   0.20772233   0.49092527  0.025413096  0.023428318  0.062820378   0.11166179 
  943000   -1796571.8    12162.337   -1411.8312    77.032961    88.950692    81.275698    1612.1571   0.14675792   0.13980911   0.20947167    0.4960387  0.025912125  0.024519738   0.06118498   0.11161684 
  944000   -1796547.5     12020.75   -1593.5368    77.032961    88.950692    81.275698    1593.3892   0.14462689   0.13902568   0.20535005   0.48900262  0.024421444  0.023907948  0.060921267   0.10925066 
  945000   -1796606.8    12022.616   -2034.6236    77.032961    88.950692    81.275698    1593.6366   0.14578522   0.14007432   0.20784394   0.49370347  0.025459004  0.023800119  0.060340759   0.10959988 
  946000   -1796626.6    12125.426   -2017.3689    77.032961    88.950692    81.275698    1607.2644   0.14437351   0.13893735   0.20727479   0.49058565  0.024822161  0.024406299  0.060348443    0.1095769 
  947000   -1796585.8    12104.906   -1497.5759    77.032961    88.950692    81.275698    1604.5444   0.14391241   0.13876152   0.20690737    0.4895813   0.02495769   0.02416082  0.060987391    0.1101059 
  948000   -1796537.4    12013.981   -1828.3443    77.032961    88.950692    81.275698     1592.492   0.14613574   0.13934281   0.21046329   0.49594184  0.025520309  0.023867656  0.063447538    0.1128355 
  949000   -1796597.5    12156.918   -1592.0855    77.032961    88.950692    81.275698    1611.4387   0.14565648   0.13868139   0.20918724   0.49352512  0.024685483  0.023382534  0.063284304   0.11135232 
  950000   -1796600.6    12098.984   -1793.2452    77.032961    88.950692    81.275698    1603.7595     0.146925   0.14124629   0.21144259   0.49961389  0.025552596  0.024888119  0.064601647   0.11504236 
  951000   -1796558.2    12130.215   -1266.4483    77.032961    88.950692    81.275698    1607.8992   0.14692646   0.14056962   0.21059503   0.49809111  0.025035686  0.024401865  0.064375602   0.11381315 
  952000   -1796587.3    12056.888   -2086.3931    77.032961    88.950692    81.275698    1598.1794   0.14611422   0.14072962   0.21084678   0.49769062   0.02510943  0.024229508  0.063738658    0.1130776 
  953000     -1796603    12080.939   -1623.8319    77.032961    88.950692    81.275698    1601.3675   0.14651082   0.14022837   0.21042681   0.49716601   0.02512805  0.023893479  0.065822624   0.11484415 
  954000   -1796642.5     12141.18    -1680.637    77.032961    88.950692    81.275698    1609.3526   0.14606316   0.14170834   0.21202104   0.49979254  0.024995999  0.024189023  0.063798255   0.11298328 
  955000   -1796546.1    12164.628   -1227.2928    77.032961    88.950692    81.275698    1612.4607   0.14697067   0.14110523   0.21209586   0.50017176   0.02535209  0.024266216  0.065393643   0.11501195 
  956000   -1796597.1    12034.797   -1975.7431    77.032961    88.950692    81.275698    1595.2513   0.14668425   0.14157694   0.21153718   0.49979837  0.024293883  0.024308632  0.063758616   0.11236113 
  957000   -1796565.2    12059.289   -1545.1478    77.032961    88.950692    81.275698    1598.4976   0.14703381   0.14286485   0.21027324   0.50017189  0.024899463  0.024439786  0.064513121   0.11385237 
  958000   -1796619.2    12079.716   -2232.7582    77.032961    88.950692    81.275698    1601.2054   0.14615513    0.1420929   0.21082078   0.49906881  0.024212779  0.023912889  0.063585813   0.11171148 
  959000   -1796639.1    12062.763      -1983.6    77.032961    88.950692    81.275698    1598.9582    0.1468689   0.14188495   0.21040891   0.49916276  0.024788745  0.023927074  0.064335912   0.11305173 
  960000   -1796609.1    12066.122   -1614.5955    77.032961    88.950692    81.275698    1599.4035   0.14697824   0.14221267   0.21371207   0.50290297  0.025162221  0.024329745  0.064954085   0.11444605 
  961000   -1796637.1    12112.655   -1860.7572    77.032961    88.950692    81.275698    1605.5715   0.14790767   0.14208949   0.21213534    0.5021325  0.024896707  0.023714149   0.06331794    0.1119288 
  962000   -1796630.8    11996.227   -2202.4062    77.032961    88.950692    81.275698    1590.1387   0.14706277   0.14177538   0.21348108   0.50231923  0.024893171  0.023788347  0.067030648   0.11571217 
  963000   -1796651.9    12102.165   -1816.9079    77.032961    88.950692    81.275698    1604.1811   0.14733943   0.14051725   0.21132725   0.49918393  0.024582446  0.024244501  0.064912249    0.1137392 
  964000   -1796580.3    12058.742   -1840.6688    77.032961    88.950692    81.275698    1598.4252   0.14756579   0.14269673   0.21208705   0.50234958  0.024885002  0.023849035  0.064749089   0.11348313 
  965000   -1796593.8    12030.645   -1590.0126    77.032961    88.950692    81.275698    1594.7008   0.14797711   0.14134395   0.21069795   0.50001901  0.025624905  0.023591139  0.065247086   0.11446313 
  966000   -1796620.5    12079.455   -1981.2804    77.032961    88.950692    81.275698    1601.1708   0.14801321   0.14195813   0.21357848   0.50354983  0.024339855  0.023672186  0.065367195   0.11337924 
  967000   -1796546.1    12067.172   -1405.5856    77.032961    88.950692    81.275698    1599.5427   0.14806393   0.14330786   0.21416023   0.50553202  0.024830953  0.024416244  0.065030999    0.1142782 
  968000   -1796615.9    12097.226   -1615.5131    77.032961    88.950692    81.275698    1603.5264   0.14690202   0.14305746   0.21330454   0.50326403  0.023577914  0.023937146  0.064084012   0.11159907 
  969000   -1796550.1    12034.971   -1809.1717    77.032961    88.950692    81.275698    1595.2743   0.14668053   0.14293705   0.21440111    0.5040187  0.024976205  0.023797392  0.067002227   0.11577582 
  970000   -1796595.4     12106.12   -1712.8697    77.032961    88.950692    81.275698    1604.7053   0.14795555   0.14340354   0.21343551    0.5047946  0.025280834  0.024937795  0.064360904   0.11457953 
  971000   -1796542.3    12013.119   -1653.7907    77.032961    88.950692    81.275698    1592.3777   0.14930368   0.14276037   0.21430164   0.50636569  0.025547308  0.024531588  0.066074383   0.11615328 
  972000   -1796488.9    12076.581   -1591.2635    77.032961    88.950692    81.275698    1600.7898   0.14973001   0.14467073   0.21519125   0.50959199  0.025520522  0.024864514  0.065662533   0.11604757 
  973000   -1796646.8    12108.586   -2381.8682    77.032961    88.950692    81.275698    1605.0321   0.14783533   0.14379575   0.21604865   0.50767973   0.02453426  0.023897578  0.065271778   0.11370362 
  974000   -1796610.5     12032.04   -1693.6422    77.032961    88.950692    81.275698    1594.8857     0.148841   0.14354605   0.21414415    0.5065312  0.024960945  0.024463823  0.064032723   0.11345749 
  975000   -1796575.9    12102.158   -1812.0214    77.032961    88.950692    81.275698    1604.1801    0.1496058   0.14266376   0.21387802   0.50614758  0.025611518  0.024356808  0.063144972    0.1131133 
  976000   -1796540.5    12073.587   -775.74517    77.032961    88.950692    81.275698    1600.3929   0.14960847   0.14374247   0.21461188   0.50796283  0.025325694  0.024012951  0.064849544   0.11418819 
  977000   -1796552.2    12095.517   -1713.0423    77.032961    88.950692    81.275698    1603.2998   0.14884744   0.14413297   0.21343169    0.5064121  0.024634857  0.024701383  0.061701808   0.11103805 
  978000   -1796610.6    12016.911   -2066.2976    77.032961    88.950692    81.275698    1592.8803   0.14789897   0.14304936   0.21377067   0.50471901  0.024692225  0.023302209  0.063551201   0.11154564 
  979000   -1796602.6    12033.599   -2049.4685    77.032961    88.950692    81.275698    1595.0924   0.15003715    0.1441793   0.21431717   0.50853362  0.025480036  0.024110067  0.063618743   0.11320885 
  980000   -1796557.1    12039.953   -1646.2732    77.032961    88.950692    81.275698    1595.9347   0.15042976   0.14566814   0.21427856   0.51037647  0.025321926  0.024302579  0.064019766   0.11364427 
  981000   -1796599.4    12001.271    -1931.677    77.032961    88.950692    81.275698    1590.8072   0.15002274   0.14444578   0.21537308    0.5098416  0.024989793  0.024161697  0.065117382   0.11426887 
  982000   -1796497.7    12072.568   -1198.1424    77.032961    88.950692    81.275698    1600.2579   0.14964884   0.14392153   0.21725648   0.51082686  0.024767814  0.023831842  0.063595691   0.11219535 
  983000   -1796582.1    12040.798   -1634.2608    77.032961    88.950692    81.275698    1596.0466   0.14975309   0.14459531    0.2162157    0.5105641  0.024755982  0.024451415  0.064412272   0.11361967 
  984000   -1796559.9    12038.267   -2044.9082    77.032961    88.950692    81.275698    1595.7112   0.15046756   0.14599009   0.21509182   0.51154947  0.025192494  0.025059932   0.06256507    0.1128175 
  985000   -1796562.9    12092.185   -1736.0293    77.032961    88.950692    81.275698    1602.8582   0.15160011   0.14438328   0.21478404   0.51076743  0.025908942  0.022608721  0.063986741    0.1125044 
  986000   -1796607.2    11986.769   -1725.6364    77.032961    88.950692    81.275698    1588.8849     0.150851   0.14557799   0.21536209   0.51179108  0.025380802  0.024553503  0.062709512   0.11264382 
  987000   -1796554.6    12020.979   -1843.6332    77.032961    88.950692    81.275698    1593.4196   0.15100677   0.14530983   0.21855871   0.51487531  0.024856066  0.024085945  0.063160176   0.11210219 
  988000   -1796567.5    12084.168   -1290.1111    77.032961    88.950692    81.275698    1601.7955   0.15013824   0.14662317   0.21606581   0.51282721  0.024894575  0.024996066  0.061550619   0.11144126 
  989000   -1796578.3    12020.484   -1777.6283    77.032961    88.950692    81.275698    1593.3539   0.15129447   0.14556553   0.21752447   0.51438447  0.025167689  0.023988198  0.063926556   0.11308244 
  990000   -1796617.4    12028.445   -1930.6647    77.032961    88.950692    81.275698    1594.4092   0.15284157   0.14702254   0.21887638   0.51874049  0.025418317  0.024754166     0.060923   0.11109548 
  991000   -1796588.6     11981.41   -2061.6184    77.032961    88.950692    81.275698    1588.1746   0.15228392   0.14728285   0.21777084    0.5173376  0.026159074  0.024179871  0.059225573   0.10956452 
  992000   -1796542.2    12100.183   -1516.0682    77.032961    88.950692    81.275698    1603.9183   0.15128373   0.14624036     0.219693   0.51721708  0.024923079  0.023090017  0.063256234   0.11126933 
  993000   -1796592.8    12099.949   -1874.1713    77.032961    88.950692    81.275698    1603.8873   0.15132351   0.14927363   0.21833694   0.51893408  0.025003009  0.025195667  0.062582996   0.11278167 
  994000   -1796499.3    12041.791    -1422.252    77.032961    88.950692    81.275698    1596.1783   0.15231992   0.14805155   0.22058592   0.52095739  0.025138827   0.02425795  0.063763081   0.11315986 
  995000     -1796604    12086.469   -1875.7408    77.032961    88.950692    81.275698    1602.1005   0.15413553   0.14852267   0.22202492   0.52468311   0.02473978  0.024003839  0.063396759   0.11214038 
  996000   -1796558.5    12073.426   -1545.6669    77.032961    88.950692    81.275698    1600.3717   0.15310313   0.14830523   0.22134124    0.5227496  0.025070097  0.024449268   0.06353519   0.11305455 
  997000   -1796576.4    12025.538   -1844.1167    77.032961    88.950692    81.275698    1594.0239   0.15267164   0.14784556    0.2206122   0.52112941  0.025117939  0.023755585   0.06205717   0.11093069 
  998000     -1796613     12003.34   -2086.2594    77.032961    88.950692    81.275698    1591.0815   0.15308864   0.14964408   0.21997909   0.52271181  0.025944449  0.024725189  0.062942128   0.11361177 
  999000   -1796548.2    12102.272    -1643.091    77.032961    88.950692    81.275698    1604.1953   0.15309556   0.14977121   0.22293359   0.52580037  0.024964395  0.024426784  0.064748412   0.11413959 
 1000000   -1796635.6    12050.757   -1851.1128    77.032961    88.950692    81.275698    1597.3667   0.15402298   0.14948762   0.22032353   0.52383412  0.025876656   0.02455368  0.063071047   0.11350138 
Loop time of 119055 on 15 procs for 1000000 steps with 58365 atoms

Pair  time (%) = 86643.4 (72.776)
Kspce time (%) = 28290 (23.7621)
Neigh time (%) = 1650.56 (1.38639)
Comm  time (%) = 1766.28 (1.48359)
Outpt time (%) = 1.71763 (0.00144272)
Other time (%) = 702.979 (0.590466)

Nlocal:    3891 ave 3924 max 3824 min
Histogram: 1 2 0 0 1 2 0 0 4 5
Nghost:    18549.3 ave 18692 max 18426 min
Histogram: 5 1 0 0 0 3 0 2 2 2
Neighs:    1.4952e+06 ave 1.53567e+06 max 1.44342e+06 min
Histogram: 1 1 0 2 1 3 3 0 2 2

Total # of neighbors = 22428019
Ave neighs/atom = 384.272
Neighbor list builds = 26881
Dangerous builds = 0
