
variable      mytemp equal  1800
# ------------------- Configuration ---------------------
read_data	CrO.dat
  orthogonal box = (0 0 0) to (77.301 89.2602 81.5585)
  1 by 5 by 3 MPI processor grid
  reading atoms ...
  58275 atoms

mass		1  15.9994
mass            2  51.9961

# -------------------- FORCE FIELDS ----------------------
pair_style buck/coul/long 10.0 10.0
pair_coeff    * * 1e-30 1e-30 0.0
pair_coeff    1 2 1204.18 0.3165   0.0
pair_coeff    1 1 9547.96 0.21916  32.0

kspace_style    pppm 0.0001



##-------------------- energy minimization ---------------

#compute   aE   all pe/atom
#min_style  fire

thermo          100
thermo_style    custom step pe pxx pyy pzz pxy pxz pyz lx ly lz temp

minimize      1e-8 1e-8 1000 1000
WARNING: Resetting reneighboring criteria during minimization (../min.cpp:168)
PPPM initialization ...
  G vector (1/distance) = 0.308704
  grid = 72 80 75
  stencil order = 5
  estimated absolute RMS force accuracy = 0.00180078
  estimated relative force accuracy = 0.000125057
  using double precision FFTs
  3d grid and FFT values/proc = 58144 28800
Memory usage per processor = 12.4981 Mbytes
Step PotEng Pxx Pyy Pzz Pxy Pxz Pyz Lx Ly Lz Temp 
       0   -1797379.3   -136346.86   -136350.64   -33589.325    61.399422    73.235858    73.781272       77.301      89.2602      81.5585            0 
      28   -1805569.3    -86113.38   -86162.384   -186537.16   -37.066666    56.551387     109.1216       77.301      89.2602      81.5585            0 
Loop time of 15.4097 on 15 procs for 28 steps with 58275 atoms

Minimization stats:
  Stopping criterion = energy tolerance
  Energy initial, next-to-last, final = 
        -1797379.27408     -1805569.29258     -1805569.30664
  Force two-norm initial, final = 821.914 1.35861
  Force max component initial, final = 16.7665 0.0293895
  Final line search alpha, max atom move = 0.0078125 0.000229605
  Iterations, force evaluations = 28 122

Pair  time (%) = 12.3271 (79.9955)
Kspce time (%) = 2.94109 (19.086)
Neigh time (%) = 0 (0)
Comm  time (%) = 0.109163 (0.708405)
Outpt time (%) = 0 (0)
Other time (%) = 0.032374 (0.210088)

Nlocal:    3885 ave 3993 max 3775 min
Histogram: 6 0 0 0 0 0 0 6 0 3
Nghost:    18518.8 ave 18745 max 18293 min
Histogram: 6 0 0 0 2 1 0 0 0 6
Neighs:    1.45381e+06 ave 1.51056e+06 max 1.3872e+06 min
Histogram: 1 1 1 1 2 3 1 2 1 2

Total # of neighbors = 21807158
Ave neighs/atom = 374.211
Neighbor list builds = 0
Dangerous builds = 0

## --------------------- system relax --------------------
#dump          1 all xyz 100 xyz/all.xyz
#dump_modify   1 element O Cr

velocity      all create ${mytemp} 4928459 dist gaussian
velocity      all create 1800 4928459 dist gaussian
fix           1 all npt temp ${mytemp} ${mytemp} 0.1 iso 0.0 0.0 2
fix           1 all npt temp 1800 ${mytemp} 0.1 iso 0.0 0.0 2
fix           1 all npt temp 1800 1800 0.1 iso 0.0 0.0 2
run      50000
PPPM initialization ...
  G vector (1/distance) = 0.308704
  grid = 72 80 75
  stencil order = 5
  estimated absolute RMS force accuracy = 0.00180078
  estimated relative force accuracy = 0.000125057
  using double precision FFTs
  3d grid and FFT values/proc = 58144 28800
Memory usage per processor = 10.2481 Mbytes
Step PotEng Pxx Pyy Pzz Pxy Pxz Pyz Lx Ly Lz Temp 
      28   -1805569.3   -60318.069   -60409.132   -160881.67    11.021522    105.23448    243.09298       77.301      89.2602      81.5585         1800 
     100   -1798807.7   -17820.521   -17263.136   -129629.98   -440.41432    78.362999    232.28371    77.175408    89.115177     81.42599     940.1193 
     200   -1798311.4    16587.315    18383.161   -101007.18    412.29173    556.59723    552.21986    76.914136    88.813485    81.150329     978.0057 
     300   -1798044.8    39443.423    40410.622   -82588.461   -9.0306107    750.02271    616.71959    76.759088    88.634449    80.986741    1083.8411 
     400   -1797320.2    52212.329    51561.464   -70472.727   -932.04699     160.2293   -141.37984    76.695521    88.561047    80.919673    1148.9868 
     500   -1796711.8    52521.857     52868.72   -67204.011    364.51522    993.24144    95.291865    76.720059    88.589382    80.945563    1241.1609 
     600   -1796002.2    47678.104    47472.394    -69582.81    8.8260079    65.807641   -146.07953    76.796206    88.677309    81.025903    1327.4925 
     700   -1795340.8    42978.123    42290.633   -72720.884   -516.06394    7.7883774   -25.060514    76.876473    88.769995    81.110591    1425.5303 
     800   -1794590.1    40249.684    40335.974   -73898.943    432.19802    570.92411    137.33007    76.936662    88.839496    81.174095    1512.2244 
     900   -1793938.4    40040.681    40560.381   -72931.355    294.08026    -66.79828   -8.4601358    76.978741    88.888084    81.218492    1606.8887 
    1000   -1793215.7    40836.575    39595.061   -72066.572     228.9602   -398.00129   -223.89962    77.014251    88.929088    81.255958    1679.5744 
    1100   -1792647.1    40388.579    40319.833   -70969.325   -211.82903   -244.58593   -327.80832    77.050499    88.970944    81.294202    1751.9511 
    1200   -1792149.1    38761.194    39460.146   -72749.993    1340.1434     247.9449   -169.26074     77.08853    89.014859    81.334327    1800.5155 
    1300     -1791877    36986.896    36581.201   -73676.091     79.68667   -126.73631   -143.98337    77.121968     89.05347    81.369607    1831.8132 
    1400   -1791895.8    34242.274    35991.719   -74604.768    347.14112     59.88093   -117.63217    77.141491    89.076013    81.390206    1834.1057 
    1500   -1792051.7    32458.867    34240.549   -75976.949   -49.925887    225.52355    255.12581    77.142417    89.077083    81.391183    1799.6003 
    1600   -1792279.5    32528.873    33975.757   -75710.993    85.032657    776.13225    -196.4547    77.123499    89.055238    81.371223    1777.4847 
    1700   -1792405.1    36416.182    36133.636   -72879.092    6.0910566    36.748985   -449.18622    77.095226    89.022591    81.341393    1780.5635 
    1800   -1792205.1    39494.955    40449.098   -70142.172   -73.695975    476.72134    129.37939    77.077699    89.002352      81.3229    1785.5725 
    1900   -1792096.2    38880.758      39049.2   -71732.627    312.34158     109.8004       336.74    77.082364    89.007739    81.327822     1812.979 
    2000     -1792016    37939.956    38546.577   -72069.623   -417.39166    290.34555   -175.65004    77.102221    89.030668    81.348773    1818.4084 
    2100   -1792061.1    35806.946    35073.239   -74529.477   -445.66593    488.56237    -351.0916    77.123598    89.055353    81.371328     1805.049 
    2200   -1792164.8    34040.938    34256.686   -75947.164    34.906178   -43.240299    150.96134    77.130375    89.063178    81.378478     1785.971 
    2300   -1792191.5    35005.454    34878.109   -75387.429   -411.97239    125.70192    -198.8462    77.119314    89.050406    81.366808    1775.2475 
    2400   -1792281.2    38008.011    36257.563   -73618.994   -347.54245   -963.22887     611.0779    77.100229    89.028368    81.346671    1799.5951 
    2500     -1792114    39910.486    39639.741   -71535.443    617.58673   -246.20894    670.54292    77.089278    89.015722    81.335117    1803.0613 
    2600   -1792075.9    39414.245    38557.125   -71825.045    649.11092    -171.7898     -47.9437    77.094273    89.021491    81.340387    1811.7916 
    2700   -1792095.2    37580.798    35804.984   -73089.069    665.92419    368.97382    670.52566     77.10839    89.037791    81.355282    1804.9251 
    2800   -1792150.3     34533.15    35041.745   -75503.853    203.40234    980.72215   -249.40888    77.118312    89.049249     81.36575    1789.4573 
    2900   -1792196.3    35266.613    35471.202   -75005.793    -708.3787    188.55864    69.083658    77.116102    89.046697    81.363419    1782.4926 
    3000   -1792183.1    36872.558    36412.157   -72911.481   -301.55558    40.228733    -444.3754    77.104813    89.033661    81.351507    1788.7952 
    3100   -1792175.6    37446.952    38063.179   -72435.572   -100.44021     715.9644   -19.269448    77.093937    89.021102    81.340032     1807.008 
    3200   -1792049.1    38608.392    38355.508   -70897.142   -330.18412    406.34419   -244.35472    77.093307    89.020375    81.339368    1802.0285 
    3300   -1792161.5      36129.9    36819.717   -72740.031   -573.38055    580.40594   -173.27263    77.104315    89.033086    81.350982    1811.9231 
    3400   -1792172.2    34916.135    34823.198   -74183.683    173.62577   -266.04075    32.373995    77.114554    89.044908    81.361785    1795.6966 
    3500   -1792217.4    35181.034    34153.564   -73988.238   -607.57458   -300.83399   -99.364574    77.114706    89.045084    81.361945    1789.5792 
    3600   -1792179.8    35742.579     35715.78   -73664.833    18.570334   -89.900603    -214.2933    77.105211     89.03412    81.351927    1788.4534 
    3700   -1792134.4    37952.842    37485.271   -71525.608   -126.06021   -60.032346    363.63476    77.094791    89.022088    81.340933     1797.198 
    3800   -1792148.3    38202.713    37469.631   -71530.819   -207.58836   -476.63892   -263.51092    77.093139    89.020181    81.339191    1810.4859 
    3900   -1792185.8    36242.242    36642.002   -72869.907    236.37866   -271.66348   -28.597296    77.101108    89.029383    81.347599    1814.1093 
    4000   -1792135.8     35847.26    36692.244   -73583.963   -147.77411   -176.57725   -864.11285    77.110524    89.040256    81.357533     1792.673 
    4100   -1792192.8    35576.953    35768.136   -74411.545   -277.39383     296.5558   -628.81494    77.114393    89.044723    81.361616    1790.0449 
    4200     -1792219    35059.138    34763.533   -73964.278    613.07286   -207.72254    0.8272615    77.109296    89.038837    81.356237    1796.3829 
    4300   -1792141.6     37265.95    37323.814   -71700.785    685.47761    463.98699    283.51256    77.099626    89.027671    81.346035    1797.9918 
    4400   -1792155.1    37013.239    37346.115   -71594.921   -117.86042    75.039187    111.05307    77.095478    89.022881    81.341658    1808.9445 
    4500   -1792112.8    38014.106    35798.463   -72069.107   -351.64025   -424.97414   -29.512752    77.100395     89.02856    81.346847    1800.5904 
    4600   -1792184.5    35832.677    35836.471   -72785.528    752.78809   -238.90999    523.79886    77.108968    89.038459    81.355891    1799.3275 
    4700     -1792176    35072.653    35036.501   -74168.973    787.24095   -130.30568    806.80388    77.113671    89.043889    81.360853    1790.1641 
    4800   -1792209.2    35963.454    35201.976    -74186.79   -1018.8782   -433.36121   -94.214267    77.110628    89.040375    81.357643    1797.5851 
    4900     -1792129    37154.579    36992.946   -73269.759    -82.29088    524.72983   -379.19941      77.1021    89.030528    81.348645    1797.6347 
    5000   -1792097.5    38210.845    38282.018   -71998.626    75.254256    114.78285   -533.08148    77.097208    89.024879    81.343484    1802.2481 
    5100   -1792098.3    37642.958    37626.419   -72581.177   -114.36452     778.4442   -650.87121    77.101455    89.029783    81.347964    1799.4168 
    5200   -1792139.5    36960.994    36291.135   -73217.352   -87.380412    339.59997    494.27794    77.109538    89.039117    81.356493    1792.9998 
    5300   -1792215.7     35237.91    36297.895   -74649.298   -562.00606     663.8741    -200.1896    77.113957     89.04422    81.361155    1794.4446 
    5400   -1792196.9    35653.191    36788.131       -73467    461.89251    615.04039   -790.28744    77.109438    89.039002    81.356388    1795.3401 
    5500   -1792093.9    36813.112    36696.591   -72185.024   -68.149813    370.83433   -35.092841    77.101552    89.029896    81.348067    1791.9634 
    5600   -1792169.3     36993.25    38146.771   -72314.856   -110.08857    326.98788    196.54753    77.098435    89.026296    81.344778     1809.894 
    5700   -1792178.9    36459.182    36757.379   -72882.847   -861.69036    39.617132    -291.4006    77.103731    89.032412    81.350366    1809.1967 
    5800     -1792194    34425.244    35848.023   -73885.827   -177.71401   -62.301641   -107.81658    77.110522    89.040253    81.357531    1801.0533 
    5900   -1792239.5     34520.49    35340.907   -73902.612   -273.92045   -125.70298   -241.29982    77.111775      89.0417    81.358853    1799.4132 
    6000     -1792227    36108.675    34963.138   -73439.535   -1047.6739   -280.95552   -1307.4182    77.106783    89.035936    81.353586    1799.9269 
    6100   -1792150.3    36470.191    36600.976   -72432.608    86.999353    133.30172    89.260819    77.099427    89.027442    81.345825    1799.7485 
    6200   -1792141.8    37592.395    37823.007   -72383.603   -59.090077   -91.457047   -91.551466    77.097227    89.024901    81.343504    1806.2318 
    6300   -1792158.4    37474.714    35817.394   -73400.719    319.06474   -346.32822   -277.74443    77.103565     89.03222    81.350191    1806.1825 
    6400   -1792141.7    36830.674    35716.986   -74822.291   -168.18088    -860.8629    166.99789    77.111736    89.041655    81.358812    1793.4838 
    6500   -1792221.2    35076.061    35235.782   -75092.461    87.731873   -544.96834    562.62689    77.114203    89.044504    81.361415    1797.1929 
    6600   -1792238.4    37126.261     35793.65   -72864.948    349.56008    -117.9909    147.76956    77.107954    89.037288    81.354822    1801.9723 
    6700   -1792189.5    37773.059    37203.164   -72772.969   -4.0662299    136.06087    348.75139    77.100638    89.028841    81.347103    1805.7231 
    6800   -1792081.2    37973.994    38738.266   -71692.263   -30.977588    220.29394    653.15183    77.098955    89.026897    81.345327    1798.2589 
    6900   -1792186.2    37361.083    36635.251   -72429.559    39.257563   -441.16157    471.19393    77.104473    89.033268    81.351149     1809.562 
    7000   -1792161.1    35601.935    36281.724   -73337.915    232.45957   -477.39354    352.20386    77.111735    89.041653     81.35881     1795.835 
    7100   -1792255.2    34701.875    34707.217   -74326.369    164.28445   -616.71397    458.40321    77.114977    89.045398    81.362232    1802.2262 
    7200   -1792229.1    35351.749    35726.732    -73666.48    519.14446   -488.95245     295.4142    77.109639    89.039234      81.3566    1801.2621 
    7300     -1792209    37582.067    36584.478   -73851.964    260.53858    -346.1802    480.26183    77.102506    89.030997    81.349073     1807.731 
    7400     -1792050    37845.308     37765.54   -72671.891    385.66566    167.31436     637.9811    77.099706    89.027764    81.346119     1793.622 
    7500   -1792180.3    37130.267    37823.995   -73467.838     326.0963   -58.449939    456.33711    77.103224    89.031826    81.349831    1808.4713 
    7600   -1792173.5    36621.939     35410.62   -73795.367    140.75049   -31.566835    430.14823    77.109863    89.039493    81.356836    1798.3861 
    7700   -1792166.1    35447.959    36469.246   -73880.604    154.15645    101.83385    345.41222    77.111641    89.041545    81.358712    1790.3496 
    7800   -1792190.6    35607.214    36621.215     -73278.2    141.13922   -161.61783    544.59006    77.107176     89.03639    81.354001    1795.5296 
    7900   -1792186.5    36495.283    36253.125   -72909.967    376.68681    65.565163    53.021301    77.101245    89.029541    81.347743    1804.2402 
    8000   -1792179.6    38706.908    35880.234   -72373.683   -105.87471   -394.11029   -183.60484     77.09775    89.025506    81.344056    1809.8469 
    8100   -1792151.6     37165.03    37463.534   -71779.133    22.837735    312.76116    934.64268    77.100954    89.029205    81.347436    1804.2043 
    8200   -1792194.7    35543.091    36090.473    -73455.52   -22.255868   -946.03571     469.6786    77.107413    89.036663    81.354251     1801.548 
    8300     -1792175    36049.104     35594.67    -73943.36    631.89568   -298.12203    409.62898    77.111217    89.041056    81.358264    1791.2695 
    8400   -1792189.3    36840.069    35116.535   -73544.444    413.81478   -293.65181    697.21806    77.108981    89.038474    81.355905    1794.8455 
    8500   -1792174.8    36894.602    37584.544   -72925.242    291.64903   -1550.0277   -517.10512    77.102198    89.030642    81.348749    1801.6274 
    8600   -1792197.1    37465.129    38039.429   -72717.214     330.5453   -524.28957   -345.25974     77.09867    89.026568    81.345027    1811.8243 
    8700   -1792119.3    37100.653    37291.479   -73667.065    35.159446   -474.44722   -278.80575    77.102335      89.0308    81.348893    1800.5737 
    8800   -1792208.4    36556.635    36052.647    -74295.14   -424.20361   -53.428585   -304.72753    77.108788    89.038251    81.355702    1804.4108 
    8900   -1792174.7    36453.143    36181.811   -73952.994    -194.3843     281.3145   -289.98419    77.112992    89.043106    81.360137    1792.0356 
    9000   -1792213.5    34840.035    35960.386    -74639.32   -452.46289    17.619567   -682.54227    77.111787    89.041714    81.358866    1797.2763 
    9100   -1792157.4    36620.614     37100.83   -72673.951   -224.27579    558.33664   -788.02124    77.104916     89.03378    81.351616    1798.8721 
    9200   -1792174.9    37302.653    37863.803   -72127.611   -463.26339    767.26515   -498.75903    77.100574    89.028767    81.347036     1810.576 
    9300   -1792155.9    37742.526    37435.584   -72218.024   -523.75097    198.84055    -77.97606    77.102683    89.031201     81.34926    1808.3477 
    9400   -1792163.8     35948.38    36108.409   -73520.891   -289.13909    13.854303    152.33705    77.110366    89.040073    81.357367    1800.2441 
    9500   -1792222.1    33869.105    35354.779   -73337.358    121.87835    24.649192    292.76318    77.115176    89.045627    81.362441     1798.722 
    9600     -1792196    34667.504    35298.823   -72984.335   -27.609997   -120.74945   -74.872763    77.111556    89.041447    81.358622    1794.7436 
    9700   -1792112.6    36283.369    37110.423   -71730.988    -536.3173   -518.73772   -141.99515    77.101137    89.029416    81.347629    1791.5219 
    9800   -1792168.1    37518.043    37276.123   -72492.575    82.510534   -1145.8833    567.13658    77.093708    89.020838    81.339791    1806.5522 
    9900   -1792173.9    37975.485    37512.976   -71667.332    239.95489    -537.9565    617.78977    77.095921    89.023394    81.342126     1806.936 
   10000   -1792126.4    37236.014    36417.466   -72972.076    214.23257   -701.20104    227.17863    77.105417    89.034359    81.352145    1793.0079 
   10100   -1792211.9    34716.873    35016.665   -74029.371    1231.3559    -452.7549    778.44314      77.1138    89.044038    81.360989    1798.3542 
   10200   -1792177.8    35597.508    34500.699   -74445.867    72.922358   -301.07579    606.61305    77.113645     89.04386    81.360827    1794.3028 
   10300   -1792155.7    37122.153    36311.209   -72894.134   -320.48938   -523.59858    81.913746    77.105904    89.034921    81.352659    1799.8247 
   10400   -1792113.5    37149.096    37101.355   -72289.026     637.8744   -328.63023    133.99432    77.099973    89.028073    81.346401    1801.1485 
   10500   -1792150.1    36854.962    36747.134   -73141.114   -154.21795   -957.38883   -85.818086    77.100496    89.028676    81.346953    1804.3955 
   10600   -1792196.7    35566.732    36091.184   -73654.273   -203.19571    424.25417    239.91152     77.10624    89.035309    81.353014    1801.9197 
   10700   -1792208.8    35635.593     35399.55   -73670.639    391.23665   -72.586586    -209.9868    77.110535    89.040268    81.357545    1796.0479 
   10800   -1792173.8    35610.165    35062.945   -73636.173   -78.231949    190.40353   -844.49637    77.109468    89.039037    81.356419     1793.059 
   10900   -1792180.9      35721.1    37226.277   -73220.504    228.12923    10.029102   -494.11704    77.103356    89.031979     81.34997    1802.6727 
   11000   -1792153.1    38279.102    37417.785    -72039.06    80.825009   -35.560917   -42.254027    77.097756    89.025513    81.344062    1806.2336 
   11100   -1792195.2    37385.541    36632.219   -73404.635    163.35307   -294.88432    645.68595     77.09958    89.027618    81.345986    1810.4576 
   11200   -1792215.6    36075.207    35675.361   -73173.105     780.3802   -436.75961    258.40462     77.10647    89.035574    81.353256    1804.1097 
   11300   -1792216.1    35246.877    34817.441    -73619.52    37.825049   -200.15588    104.39239    77.112185    89.042174    81.359286    1796.0752 
   11400   -1792167.7    35213.364    35560.193   -73789.938   -110.96278    50.733644   -585.25835    77.109829    89.039452    81.356799    1792.9006 
   11500   -1792128.2     37077.81    37100.259   -72903.183   -134.34829   -604.04432    248.38939     77.10389    89.032595    81.350534    1796.7402 
   11600   -1792096.6    37670.301    37502.278    -71666.97    508.91018   -89.522437    192.16593    77.100778    89.029002    81.347251    1798.4717 
   11700   -1792133.1    38030.367    37722.479   -72163.037   -637.90618   -471.59191     244.1946     77.10302    89.031591    81.349616      1801.92 
   11800   -1792154.6    35675.337    36216.437   -73465.459   -392.37683   -172.05676    85.016002    77.108608    89.038043    81.355512    1796.9086 
   11900   -1792172.4     35284.11    35762.638   -73645.455   -386.00653   -565.43626   -667.88267    77.111987    89.041945    81.359077    1792.0525 
   12000   -1792215.1    36415.498    35577.247   -74188.703   -831.99661   -330.51428   -392.10581    77.109988    89.039636    81.356967    1798.4608 
   12100   -1792181.5    37051.686    37131.936   -73180.833     -480.988   -20.044911   -426.76402    77.103779    89.032468    81.350417    1801.9604 
   12200   -1792181.2    37706.782    37213.586    -72069.37    79.984824    -21.51652   -338.70396    77.100196     89.02833    81.346636     1809.129 
   12300     -1792210    37117.169      36729.1   -72652.202   -453.93582   -223.92408    29.827436    77.102509       89.031    81.349077    1811.9694 
   12400   -1792203.3    35829.577    35509.226   -73417.166   -354.97376   -469.35843    146.61137    77.108527     89.03795    81.355427    1801.8327 
   12500   -1792213.4    35801.889    35388.628   -73514.659    274.13636    800.85216   -303.47502    77.112503    89.042541    81.359622    1796.7561 
   12600   -1792250.4    36206.861    35922.486   -73307.906    421.46701   -488.70172    294.07115    77.109932    89.039572    81.356908    1803.8246 
   12700   -1792163.7      37312.2      35401.1    -71800.17    148.97045   -760.56988    809.97086     77.10395    89.032665    81.350597    1801.1631 
   12800   -1792122.2     37792.13    37273.531   -71174.647    750.47836   -419.79277   -48.166561    77.100093    89.028211    81.346528    1802.5996 
   12900   -1792135.1    36759.923     37761.16   -72159.728    641.64361    25.354647    807.33411    77.102203    89.030647    81.348754    1801.5267 
   13000   -1792153.5     37074.67    35127.604   -73573.347    -178.3447   -52.187935    481.76608    77.107713    89.037009    81.354567    1795.2466 
   13100   -1792286.2    34597.036    35672.346   -74642.837   -244.13196    55.644638   -319.64239    77.110881    89.040668     81.35791    1807.8571 
   13200   -1792194.8    36367.875    36358.905   -74047.164   -738.59784   -622.57786    240.46211    77.108583    89.038014    81.355485    1798.5955 
   13300   -1792190.9    37403.828    36525.353   -72420.844   -253.27663   -551.78111    -44.38972    77.104107    89.032846    81.350763    1804.8973 
   13400   -1792139.4    38075.955     36826.08   -72682.384   -332.47852    102.48296   -94.085471    77.103188    89.031785    81.349793    1803.6086 
   13500   -1792153.5    36962.325    36900.438   -73156.183   -450.39168    259.21267   -384.63694    77.106176    89.035235    81.352946    1803.7089 
   13600   -1792185.9    36501.569    36420.224    -73631.36   -731.67851   -35.033028   -593.10766     77.11016    89.039835    81.357149    1800.1995 
   13700   -1792218.9    35272.499    36587.182    -72983.82   -516.10389    380.03217    37.117445    77.111535    89.041423      81.3586    1798.1926 
   13800   -1792221.8    36076.829     36583.51   -73072.109    240.71606   -55.844399    232.86568    77.108286    89.037671    81.355172    1801.1481 
   13900   -1792186.2    36300.994     36554.89   -72813.164    84.907574    454.74118    787.24318    77.102155    89.030592    81.348703    1804.4757 
   14000   -1792110.5    38034.088    37387.063    -72280.23   -417.12975    349.25455    -346.9066    77.100701    89.028913    81.347169    1799.8202 
   14100   -1792161.6    36798.553    35880.078   -73493.466    872.24402    119.57517    86.616726    77.104917    89.033781    81.351618    1804.4212 
   14200     -1792137    35596.099    35770.919   -74267.414    552.46584    -162.5428    415.84499     77.10948     89.03905    81.356432    1793.0517 
   14300   -1792266.7    36358.532    35466.511   -74689.479     158.6176    610.68633    448.12221    77.110259     89.03995    81.357254    1806.0755 
   14400   -1792158.7    37056.922     36254.25    -73210.44   -548.65295   -10.212835   -153.14833    77.106451    89.035552    81.353235    1793.5279 
   14500   -1792237.6    36152.878    37690.373   -72848.538    89.595736   -195.49886    470.51827    77.101794    89.030175    81.348323    1810.4518 
   14600   -1792131.3    37341.486    37833.351   -72041.361    271.08001    419.53069    -292.2716    77.100431    89.028601    81.346884    1801.0075 
   14700   -1792150.8    37392.715    36381.744   -72327.187   -405.06569   -244.28031   -490.14488    77.103491    89.032134    81.350112    1801.6446 
   14800   -1792200.4     35823.37    36438.556   -72836.188    -10.55819    458.78618   -52.393262    77.108948    89.038436     81.35587    1801.8938 
   14900   -1792185.2    34175.372    36171.095   -73017.475    477.69525       999.68    702.58651    77.111803    89.041732    81.358882     1795.198 
   15000   -1792169.1    35603.884    35729.542   -72793.014   -80.243344   -212.37075    496.51661    77.108718     89.03817    81.355628    1795.2474 
   15100   -1792209.6    37720.701    36074.209    -72378.57   -167.16613    56.681569   -135.00621     77.10204    89.030458    81.348581    1807.3895 
   15200   -1792128.8    36429.174    38845.449   -71592.254    241.15451    547.39646    587.62056    77.097192     89.02486    81.343466    1800.1584 
   15300   -1792138.9     37359.44    37466.191   -72669.936   -172.88387    -435.9304   -311.65514    77.099036     89.02699    81.345412    1799.5987 
   15400   -1792169.2    37284.503    36997.564   -73779.562   -1171.8812   -159.59114   -1277.8273     77.10634    89.035424    81.353119    1797.6485 
   15500   -1792234.9    35045.853    36249.751   -74786.726   -883.71929    1119.5622   -606.08446    77.112962     89.04307    81.360105    1802.6592 
   15600     -1792161    34861.678    35652.119   -74599.541   -88.745543   -25.797101   -737.20556    77.113625    89.043837    81.360805    1795.2821 
   15700   -1792246.6    36380.724    36353.936   -74683.937    512.68252   -405.46613   -658.66335    77.107287    89.036517    81.354118    1813.2669 
   15800   -1792172.6    37982.465    36474.421   -73085.613   -26.417601   -92.778798   -641.59408    77.100532    89.028718    81.346991    1806.7832 
   15900   -1792167.9    36834.896    37910.545   -72505.265   -393.33346    291.76106   -57.455776    77.098633    89.026525    81.344988    1803.2457 
   16000     -1792182     36440.95    36491.003   -72605.456    1.7036209    364.10712    46.085212    77.102109    89.030538    81.348654    1796.9836 
   16100   -1792229.6    36472.608    36338.663    -73809.98   -173.26006   -108.32841     477.5281    77.107405    89.036655    81.354243    1798.4262 
   16200   -1792135.6    36546.452    36330.166   -73916.285   -463.72906   -97.216423   -293.60221    77.110421    89.040136    81.357424    1789.8469 
   16300   -1792109.2    36953.522     36321.82    -74080.02    533.86672   -1008.2538   -82.539626    77.108731    89.038186    81.355642    1795.4121 
   16400     -1792148     37738.96     37780.62   -73800.664    589.93211   -117.99725    251.18969    77.104308    89.033078    81.350975    1806.4354 
   16500   -1792162.7    36559.144     37564.29   -73140.912    571.71683    383.90188   -52.891426     77.10253    89.031024    81.349098    1806.0716 
   16600   -1792156.4    36419.556    36226.759   -72814.734    1035.0307   -207.39927    33.955231    77.103476    89.032118    81.350097    1795.1567 
   16700   -1792263.7    36872.057    36125.257   -72595.298    74.664797     378.9674   -23.369093     77.10409    89.032826    81.350745    1801.6464 
   16800   -1792199.5    35690.074    36020.301   -72744.052   -584.04928    440.70608    25.849952    77.104877    89.033735    81.351575     1794.896 
   16900   -1792151.8    35883.966    37024.675   -72757.731    114.01509   -5.4167236    304.24892    77.104193    89.032945    81.350854    1798.1188 
   17000   -1792105.7    36112.951    37314.944   -72320.272     275.9718    395.05136    322.19281    77.103718    89.032396    81.350352    1800.8937 
   17100   -1792178.8    35420.946    36858.543   -72248.546   -218.85024     487.4569   -971.96854    77.106392    89.035484    81.353174    1810.2965 
   17200   -1792196.2    35684.895    35475.004   -72831.892    122.89551   -57.201501   -570.39535    77.110664    89.040417     81.35768    1803.5116 
   17300   -1792206.9    35777.848    36533.246   -73335.333   -291.87733    -200.2604   -321.35293    77.111359     89.04122    81.358414    1796.1797 
   17400   -1792185.4    36214.306    35728.439   -74238.707    595.08025    45.735654   -411.22812    77.106276    89.035351    81.353051    1793.0854 
   17500   -1792189.1    36809.215    37978.179   -71812.848   -200.93941   -18.528643     240.3211    77.098745    89.026655    81.345106    1800.8979 
   17600   -1792143.6    37783.432    37585.903   -71225.668   -504.94115    153.13689   -472.67316    77.096956    89.024589    81.343218    1802.7468 
   17700     -1792110    36143.843    38073.075   -72907.886   -468.59629    714.55644   -239.70444    77.102928    89.031484    81.349519     1798.269 
   17800   -1792191.6    35702.573    36070.914   -73736.426    507.43143     378.9238   -224.56803    77.112198    89.042189    81.359299    1802.6256 
   17900   -1792192.1    33673.675    34877.866    -74965.48    645.65298    188.96814    708.30261    77.116646    89.047325    81.363993    1796.3798 
   18000   -1792214.6    36656.268    36457.123   -74046.031    47.680591   -512.79309    87.266049    77.109924    89.039562      81.3569    1799.5523 
   18100     -1792160    37509.114    37395.878   -73056.732     430.4956    -177.6136    603.38409    77.098838    89.026762    81.345204    1798.5458 
   18200     -1792095    37774.416    38409.954   -71019.959    461.77238    363.29325    -606.6428     77.09259    89.019547    81.338611    1793.9557 
   18300   -1792130.8    37456.198    38705.149   -71878.529   -466.32791    327.29325   -516.34186    77.097491    89.025207    81.343783    1796.0295 
   18400   -1792173.4    36474.579    35050.977   -73740.336    249.75047   -35.335857    329.46373     77.11047    89.040193    81.357476    1795.3804 
   18500   -1792221.6    34192.872    34796.657   -74427.847   -38.013847   -897.02232   -338.64764    77.119331    89.050425    81.366825    1800.1969 
   18600   -1792109.2    36200.734    36293.815   -75015.851   -494.35404    58.165509    -1.434034    77.115815    89.046366    81.363116    1791.3912 
   18700   -1792146.5    36741.396    37475.726   -72585.666   -83.519204    -198.1096    116.49375    77.103927    89.032638    81.350573    1804.2555 
   18800   -1792129.6    38294.834    37607.176   -71936.899    694.35257   -822.26645    383.05683    77.093558    89.020665    81.339633     1803.036 
   18900   -1792143.2    38490.849    37228.309   -71330.383   -368.91853   -987.87975   -64.414491    77.091768    89.018598    81.337744    1796.3295 
   19000   -1792193.4    37823.084    36827.275    -72890.69    323.18434   -275.06098    324.54315    77.099959    89.028056    81.346387    1792.0414 
   19100   -1792195.5    35666.484    35685.245    -72933.63    486.51782   -48.669055    411.38328    77.112718    89.042789    81.359848    1789.5916 
   19200   -1792152.8    34307.325    34232.257   -73508.839     482.2585    58.810024     1163.732    77.120237    89.051472    81.367781    1793.4558 
   19300   -1792199.2    35085.319    34338.311   -74320.042    304.36762    540.88615    392.77948     77.11607     89.04666    81.363385    1814.0277 
   19400   -1792119.1    36492.707    37891.247   -72850.427    -193.7844    -40.32652    205.26367    77.103795    89.032485    81.350433    1808.7865 
   19500   -1792156.7    38608.448    37702.503   -71941.112    623.88707   -67.421175    624.60033    77.094448    89.021692    81.340571    1804.7875 
   19600   -1792217.9    37014.363    37779.245   -72286.351    435.67892    485.79022   -367.29012    77.094731    89.022019     81.34087    1795.5203 
   19700   -1792239.5    36231.109    36527.036   -73643.037   -259.95226    973.79494   -626.93474    77.101557    89.029901    81.348072    1789.6101 
   19800   -1792137.9    35802.302    35995.802   -73381.916   -783.31196   -287.26767   -750.60857    77.107512    89.036778    81.354355     1783.142 
   19900   -1792175.8    36051.119    37407.864   -73770.151   -421.88061   -59.362547   -626.20054    77.109328    89.038874    81.356271    1805.7224 
   20000   -1792092.5     36936.94     37821.64   -72471.243   -141.62496   -41.381978   -499.76591    77.109201    89.038728    81.356137     1806.555 
   20100   -1792081.1    37111.199    36506.867   -74058.122   -575.69364   -283.50239   -384.77754    77.110485     89.04021    81.357492    1801.3681 
   20200   -1792163.1    36143.081    36768.119   -73705.692   -196.28221   -18.091867   -629.14958    77.110351    89.040055     81.35735    1796.3692 
   20300   -1792241.5     37054.13    35647.259   -73830.436   -380.93951   -488.56202     -298.352    77.104951     89.03382    81.351653    1793.6233 
   20400   -1792250.5    36640.483    37341.287   -72112.127   -303.22717   -520.81991   -592.95713    77.094914     89.02223    81.341063    1794.4065 
   20500   -1792144.9    38533.022    39112.629   -71179.485    293.38128   -599.42768    8.9894211    77.088962    89.015357    81.334783    1792.9976 
   20600   -1792124.4    37654.289    37627.615    -71355.48   -1104.4382   -282.08582   -810.90972    77.096157    89.023666    81.342375    1802.8696 
   20700   -1792129.6    35431.642    36081.654   -73934.394   -244.25769    650.08347   -489.38196    77.112163    89.042148    81.359262    1805.6245 
   20800   -1792133.6    34539.327    34032.953   -75159.573    39.193595   -707.38052    471.58835    77.125148    89.057142    81.372963    1798.6192 
   20900   -1792179.4    34104.408    34680.098   -75093.602   -799.17669    362.18431    460.18125    77.125111      89.0571    81.372924    1795.2819 
   21000   -1792163.4    36525.501    35051.246    -73909.19    -192.0761   -658.50721     266.5619    77.108694    89.038142    81.355602    1791.3553 
   21100   -1792163.3    40205.321     38746.05   -71418.708    490.51403   -835.57215    119.77579    77.085687    89.011576    81.331329    1795.8468 
   21200   -1792230.9    39892.322    40748.669   -70153.947    69.594591    424.59289     -207.045    77.075834    89.000199    81.320933    1809.1153 
   21300   -1792076.5    37679.112    39860.664   -71168.383   -376.56807    499.14426     208.2722    77.088864    89.015245    81.334681    1786.2907 
   21400     -1792174    35604.483    35291.311    -74194.81   -511.71913   -479.54751   -161.76381    77.114901    89.045309    81.362151    1795.6305 
   21500     -1792148     33390.01    31670.866   -75692.101    943.62071    151.34407    807.49029    77.133107    89.066332     81.38136    1793.2598 
   21600   -1792172.1    33551.182    33682.831   -75046.673   -402.51823   -31.791208    441.77118    77.128589    89.061115    81.376593    1803.4383 
   21700   -1792158.7    35839.518    36503.552   -72834.767   -234.60611    41.104536    282.89065    77.106988    89.036173    81.353803    1808.6722 
   21800   -1792182.1    38469.104    39195.524   -71223.885    19.181063    573.36965     998.3022    77.085439    89.011289    81.331066    1808.8763 
   21900   -1792237.9    39647.941    38972.328    -70770.14    254.09495   -91.379221    609.52493    77.080114    89.005141    81.325449    1803.7689 
   22000   -1792211.1    36269.876    37615.298   -72115.208    39.320673    303.94994    91.813801    77.092423    89.019354    81.338435    1787.3728 
   22100   -1792208.3     35623.47    34894.267   -73670.399   -368.16403    -359.9004   -113.39875    77.109898    89.039533    81.356873     1787.481 
   22200   -1792145.8     35089.54    34626.001   -74043.329    -59.53186   -287.89123    163.72795    77.120208    89.051438    81.367751    1795.2815 
   22300   -1792132.2    35237.813    35739.492   -73270.166    839.17546   -232.98493    458.03419    77.117518    89.048332    81.364913    1810.5882 
   22400   -1792082.5    36179.172    37074.223   -71664.354   -758.80014    351.72482    233.69713    77.108017     89.03736    81.354888    1806.8092 
   22500   -1792168.1    37423.517    36520.402   -72147.843    280.34315    349.31346    398.47729    77.099651      89.0277    81.346061    1803.8787 
   22600   -1792186.8    36655.708    38703.496   -72021.158    650.69308    713.87059    1343.9223    77.095976    89.023457    81.342184    1787.3852 
   22700   -1792291.9    36112.568    37843.013   -72947.371   -122.18643   -248.22648    58.206118    77.098053    89.025855    81.344376    1794.5057 
   22800   -1792303.5     35973.05    36929.581   -73474.206   -723.76302    112.17753    641.41793    77.102721    89.031246    81.349301    1806.7962 
   22900   -1792180.6    36424.388    36916.831   -73346.398   -41.146679    152.86961    -47.88834    77.107769    89.037075    81.354627    1807.6196 
   23000   -1792062.6    36715.674    36251.323   -73526.143    356.51857   -645.57446   -408.29589    77.112649    89.042709    81.359775    1801.8652 
   23100   -1792122.9    35597.937    35582.466   -74133.388    -141.4567   -582.09036   -54.767134    77.114106    89.044392    81.361313    1805.8683 
   23200   -1792170.6    36162.292    36089.384    -74109.56    450.25865   -625.64204     351.7175    77.110207     89.03989    81.357199    1797.5295 
   23300   -1792240.1    37802.678    35975.737   -74327.769   -253.85885    27.704354   -206.29979    77.101661    89.030021    81.348182    1795.5325 
   23400   -1792227.7    37701.726    37825.074   -72102.761    956.63145   -163.63281    181.22428    77.092186     89.01908    81.338185    1792.7722 
   23500   -1792207.6    39247.661    38009.921   -71459.011   -258.37883   -341.43136   -210.68073    77.088775    89.015142    81.334586    1798.8602 
   23600   -1792153.4    37578.423    36828.485   -72317.227     -364.995   -365.09833    -702.2248    77.097176    89.024842     81.34345    1802.3215 
   23700   -1792165.4    36499.836    35451.046   -73022.836    385.79672   -313.83612   -313.69614    77.113032    89.043151    81.360179    1808.3555 
   23800   -1792139.3    34968.903    34048.583   -74852.876     872.2888   -230.78219   -568.60017    77.125031    89.057007     81.37284    1802.0468 
   23900   -1792164.8    33885.008    34083.953   -74513.065   -175.94327   -611.12765   -691.00035    77.123427    89.055154    81.371147    1798.9067 
   24000   -1792161.1    35792.534    36906.002   -73220.433   -115.59404    232.22949   -489.27938    77.107216    89.036436    81.354043    1793.2711 
   24100   -1792225.8    37759.953    38605.092   -71871.449    754.19608    414.91392    493.48735    77.089399    89.015862    81.335244    1800.4947 
   24200   -1792236.5    39459.786    37808.314   -70994.262   -883.49084    -32.34899   -248.37788    77.082581     89.00799    81.328051     1803.439 
   24300   -1792192.7    38486.813    38641.228   -71601.905    147.61016   -324.87277   -571.69121    77.091534    89.018327    81.337497    1799.8473 
   24400   -1792204.1    35825.336    35993.203   -73911.954    562.89172   -273.79065    4.6493645    77.110028    89.039683     81.35701    1803.9189 
   24500   -1792142.7    35056.402     34674.34    -74379.14    308.16706   -204.49356    558.19239    77.124135    89.055972    81.371893    1799.1409 
   24600     -1792133    34554.246    34258.133   -75548.755   -518.79439    314.07555   -279.70892    77.124698    89.056623    81.372488    1800.6249 
   24700   -1792165.6    35337.405    36434.101   -74653.699   -709.52685    158.63434   -787.25669    77.111355    89.041215     81.35841    1804.7159 
   24800   -1792162.2    38723.877    37057.758   -72433.168    469.49685   -514.31413   -627.56755    77.094998    89.022328    81.341152    1798.4312 
   24900   -1792246.6    37911.359    38803.636    -72179.39    18.983292   -760.29728   -151.82954      77.0872    89.013323    81.332924     1800.963 
   25000   -1792226.6    36924.113    38572.805    -73156.36    100.83086    269.37782   -7.1512678     77.09236    89.019281    81.338369    1793.9313 
   25100   -1792215.7     36407.96    36612.541    -74098.74    163.92596   -368.63544    101.62013    77.105114    89.034009    81.351825     1797.351 
   25200   -1792121.5    36174.077    35013.302   -75415.331    630.87507   -411.10541   -573.95534    77.116813    89.047518    81.364169     1795.991 
   25300   -1792075.7    36340.197    35246.462    -74432.38    201.55138   -48.109426    931.33893     77.11965    89.050793    81.367162    1797.7515 
   25400     -1792094    36716.882     36514.09   -74020.959    147.52225    442.20767     128.5475    77.113348    89.043516    81.360512     1800.923 
   25500   -1792172.9    38383.687    37189.569    -73479.02     316.3131   -196.70938   -101.89305    77.103253    89.031859    81.349861    1801.0671 
   25600   -1792164.2    37748.704    38156.427   -72122.738   -446.38852   -700.64389   -148.35694    77.095723    89.023164    81.341916    1789.0485 
   25700   -1792284.7    37551.288    37859.011    -73365.77   -224.41147    326.88621   -251.98716    77.094621    89.021892    81.340754    1801.5852 
   25800   -1792161.9    36643.735     38134.16   -72999.844    5.1979814     513.6884   -651.10425    77.100972    89.029225    81.347455    1791.9443 
   25900     -1792176    36293.294    36139.149   -73506.449    504.52157    364.46716   -584.92865    77.109959    89.039603    81.356937    1806.2329 
   26000   -1792177.6    35631.693    35050.825   -74417.393    -88.13706    41.208491   -655.30746    77.114775    89.045164    81.362018    1809.1681 
   26100   -1792231.7    36267.997    35903.573   -74641.143    10.852135    352.49669   -567.59871    77.112746    89.042822    81.359878    1812.0395 
   26200   -1792156.1    38114.383    36501.593   -73439.256    -86.93294   -204.49376   -408.97062    77.105766    89.034761    81.352513    1798.0596 
   26300   -1792148.9     36872.21    36917.924   -72863.935   -586.18177    7.8988211   -254.06925    77.099859    89.027941    81.346281    1795.3089 
   26400   -1792183.8    37531.897    38538.784   -73501.555   -522.50709    425.99529   -411.17478    77.096747    89.024347    81.342997    1798.9517 
   26500   -1792166.3    37487.178    37671.865   -72479.853     185.8337    390.98866    78.282831    77.098795    89.026712    81.345158    1794.7376 
   26600   -1792204.9    36616.316    36568.011   -73502.496    357.02737     503.6291   -115.54628    77.105129    89.034025    81.351841    1797.5539 
   26700     -1792204    35477.869    36083.307   -74815.021    553.13917    262.85331    675.38042    77.110904    89.040695    81.357934    1797.9444 
   26800   -1792165.9    35302.269    36615.003   -73675.023    736.01467    492.61248    487.44027    77.111755    89.041677    81.358832    1801.3902 
   26900     -1792152    36174.911    36696.697   -73957.212    440.52266   -154.02426    335.03627     77.10814    89.037503    81.355018    1807.3882 
   27000   -1792169.1    35898.041    37347.128   -73679.861    454.35995    365.66655     445.8599    77.103398    89.032027    81.350014    1807.2158 
   27100   -1792254.7    37952.381    36397.165   -73751.869   -103.51156    172.34797    57.996365     77.10019    89.028322     81.34663    1801.6451 
   27200   -1792237.5    36487.991    37562.778   -73511.518     316.2329     551.0788   -565.76532    77.098268    89.026103    81.344602    1796.5374 
   27300   -1792207.5    37370.469    38033.645   -74447.128    29.902589    1103.4305    817.30264    77.098243    89.026075    81.344576    1799.4312 
   27400   -1792177.1    37382.347     37090.26    -73541.56    313.29347   -332.35451    140.41574    77.102779    89.031313    81.349362    1804.3152 
   27500   -1792177.5    36668.951    37141.994   -73840.453    455.78677   -333.40193    256.55133    77.109183    89.038707    81.356118    1805.3825 
   27600   -1792094.3     35961.03    37158.654   -74240.784   -61.552538    486.22982   -283.87954    77.113497    89.043688     81.36067     1790.621 
   27700   -1792194.8    35286.866    35887.685   -74507.986   -496.47937   -458.52574   -446.18484    77.112068    89.042038    81.359162    1801.2537 
   27800   -1792166.6    36079.304    37391.591   -73252.148    -47.80314   -145.85473   -521.47891    77.105019    89.033898    81.351725    1797.1332 
   27900   -1792204.2    37721.702    37084.555   -73335.004   -74.666386   -294.17693   -205.90166    77.098386     89.02624    81.344727    1802.8956 
   28000     -1792146    37518.409    37820.287   -72516.546    178.31205    161.33014    43.360935    77.097156     89.02482    81.343429    1793.8204 
   28100   -1792183.6    36824.206    36925.142    -73300.18    219.72267    534.01251   -211.37567    77.101709    89.030077    81.348232    1794.9494 
   28200     -1792243    36089.801     35962.77   -73963.194     545.1911     20.80525    797.66899    77.107551    89.036823    81.354397    1798.7229 
   28300     -1792203    36723.079    35062.002   -74449.161   -763.77294   -652.02049    69.158831    77.108451    89.037861    81.355346    1796.3557 
   28400   -1792132.8    36468.822     37771.25    -73212.93    -520.3428     73.26445   -442.69253     77.10444     89.03323    81.351114    1800.1487 
   28500   -1792168.8     36875.72    36498.493   -72758.868    841.78285   -107.31298   -466.95009    77.102138    89.030572    81.348685    1808.6492 
   28600   -1792157.5    37057.242    36802.947   -73742.735   -244.10063   -682.74066   -470.26683    77.102578     89.03108     81.34915    1799.4362 
   28700   -1792193.2    37141.524    36398.187   -72931.372   -371.17938    358.90095    43.837398    77.103383    89.032009    81.349998    1792.1894 
   28800     -1792239    36103.314    36224.627   -73959.617   -12.495276    320.26851   -39.704246    77.103425    89.032059    81.350043     1797.225 
   28900   -1792290.5    36795.542    35474.749   -73393.124    263.34576   -690.92662    105.90071    77.100853    89.029088    81.347329    1808.9001 
   29000   -1792199.6    37124.775    37493.886   -72711.744   -335.98604    752.35087   -494.70028    77.099727    89.027788    81.346142    1804.7004 
   29100   -1792181.8    36823.042    35964.581   -73077.179    84.912907     468.1099   -345.67715    77.103868     89.03257    81.350511    1807.9229 
   29200   -1792245.5    35108.799    36112.148   -73469.551   -63.916287    472.17728   -6.2403272    77.110937    89.040733    81.357969    1814.6504 
   29300   -1792234.8    34742.796    35417.377   -74872.198    26.741606    106.53945   -48.251397    77.114588    89.044948    81.361821    1797.9734 
   29400   -1792226.9     36000.94    35440.696   -73763.157   -538.82301    92.184812    -377.4789      77.1087     89.03815    81.355609    1792.9747 
   29500   -1792221.3    37342.044    36965.845   -72596.445   -191.51788   -89.151552    458.52361    77.097207    89.024878    81.343483    1801.7015 
   29600   -1792208.4    38281.453    39134.384   -71561.353     299.4202    59.999823    240.17706    77.089357    89.015813      81.3352    1807.8158 
   29700   -1792188.4    37125.315    37937.281   -72216.773    469.89578   -341.28876    472.48281    77.095136    89.022487    81.341297    1804.0095 
   29800   -1792192.1    36108.803    35607.394   -73833.751    368.21275   -306.79759    477.68646    77.110199    89.039881    81.357191    1801.7567 
   29900   -1792186.3    35091.443     35236.09   -74935.212    511.74362   -348.23686   -409.40438    77.122471    89.054051    81.370138    1799.6228 
   30000   -1792188.2     34814.45    34046.839   -74589.707   -211.29572   -1154.8232   -39.901592    77.122532    89.054122    81.370203     1801.683 
   30100   -1792174.5    35459.238    36925.817   -72039.075   -299.51284    206.99644   -509.35355    77.109967    89.039613    81.356946    1813.7613 
   30200   -1792096.1    37098.654    38624.089    -71562.31    853.45123    597.30976    261.28037    77.095849     89.02331    81.342049    1805.5544 
   30300   -1792227.4    37770.739     38045.63   -72469.435   -129.13491    126.90547   -30.205759    77.089901    89.016442    81.335775    1809.2133 
   30400   -1792145.5    37351.625    37132.699   -72060.082    278.47406   -38.483913    338.15963    77.094196    89.021401    81.340306    1790.7355 
   30500   -1792205.8    36391.518    35896.238   -73438.363    643.10831    89.893208    206.24906    77.104714    89.033547    81.351403    1798.8978 
   30600   -1792148.1    36254.442     35561.95   -74685.733    495.38124    -303.0011     9.780973    77.114525    89.044875    81.361754    1796.8458 
   30700   -1792131.8    35922.874    34253.503   -73844.775    110.70769   -890.02497   -591.50012    77.118293    89.049226     81.36573    1808.0669 
   30800   -1792083.1    35318.458    36030.157   -73456.886     339.0592    -255.9222     139.0265    77.114243     89.04455    81.361457    1805.4662 
   30900   -1792220.3     36030.68    37435.176   -73464.231    77.458177     258.5271   -355.71129    77.104857    89.033712    81.351554      1811.66 
   31000   -1792158.2    37815.788    37575.083   -71889.592    -1018.833    46.685218    105.50255    77.096154    89.023662    81.342372    1796.4681 
   31100     -1792277    36948.889    38616.346   -71933.848    11.739886    516.01953   -224.98576    77.093878    89.021034    81.339971    1809.9363 
   31200     -1792192    36868.733    38248.764   -72362.987   -213.25578    721.13009   -1233.3924    77.100235    89.028375    81.346678    1796.5003 
   31300   -1792179.6     36033.95    35430.705   -73767.664   -482.73034   -221.64039   -461.88588    77.111512    89.041396    81.358575    1796.0696 
   31400   -1792167.7    35285.979    35342.169    -74521.91    492.71792    378.96886    345.99112    77.118183      89.0491    81.365614    1804.5622 
   31500   -1792070.1    35416.488     36939.32   -73775.768     296.5804    1004.7609   -710.28526    77.116656    89.047336    81.364002    1800.2395 
   31600   -1792101.1     37612.13     36290.44   -72961.788   -806.06391   -65.703859   -243.50987    77.109385     89.03894    81.356331    1800.5576 
   31700   -1792226.9    36358.678    37211.537   -72466.953     603.0735    515.45341    -150.6213    77.101104    89.029378    81.347595    1799.6842 
   31800     -1792222    37139.861    37925.882   -71865.451    -27.90423    411.62743   -412.08561    77.095378    89.022767    81.341553    1797.4876 
   31900   -1792165.3     37733.56    37014.947   -73419.645    390.88986   -488.48419   -592.78389    77.095604    89.023027    81.341791    1794.5958 
   32000     -1792171     37155.46    37475.394   -72610.497   -448.95931    180.82596    137.16458    77.101592    89.029942     81.34811    1804.1031 
   32100   -1792136.3    35581.998    36718.459   -74231.765    389.75055    141.09318    50.075278    77.112206    89.042198    81.359308    1806.2651 
   32200   -1792154.2    35679.511    34716.672   -74327.068    219.94177   -650.19134       -575.2    77.120161    89.051383    81.367701    1805.1197 
   32300   -1792206.5    37137.731    34651.372   -74407.369    -68.19241   -381.84117   -220.36696    77.118054     89.04895    81.365478    1797.1222 
   32400     -1792186    38115.437    36174.414   -72814.718    120.63462    233.06498    188.10234    77.106105    89.035153    81.352871    1791.6831 
   32500   -1792175.4    38302.402    38502.558    -71586.88   -209.36009    180.95006    345.26113    77.092815    89.019807    81.338849    1797.0017 
   32600   -1792135.1    38356.878    39179.663   -71160.066    83.715277   -420.52753   -371.63091    77.088143    89.014412     81.33392      1802.62 
   32700   -1792078.6    38646.542     37011.53   -72533.182   -338.57425    465.71285   -17.599133    77.097256    89.024934    81.343534    1796.4856 
   32800     -1792211    35667.743    35269.951   -75446.479   -161.70934    403.23103   -595.80837    77.114442    89.044779    81.361667    1795.6606 
   32900   -1792203.1    33742.149    35570.326   -75419.831    130.07208    353.03259   -268.70584    77.123004    89.054666    81.370701    1791.8523 
   33000   -1792159.6    35304.866    35654.468   -73843.315   -387.30479    307.60969   -683.82731    77.116357    89.046991    81.363688    1795.7996 
   33100   -1792195.4    36970.039    35744.685   -72682.242   -433.18445    221.16837   -115.03826    77.101717    89.030087    81.348242    1809.2172 
   33200   -1792218.8    38100.115    38515.958   -71706.235    272.89829    185.64485     172.4329    77.091032    89.017748    81.336968    1810.8302 
   33300   -1792189.5    37453.612      38408.8   -72605.506   -434.52043    417.57439   -1067.7419    77.091803    89.018638    81.337781    1799.7535 
   33400   -1792185.3    37548.281    35896.775   -73298.992   -797.96476   -918.87002   -189.97443    77.102215    89.030661    81.348766    1795.6687 
   33500   -1792206.3    35785.687    35175.039   -74581.742   -475.33205    225.65749   -863.09406    77.113451    89.043636    81.360622    1799.5702 
   33600   -1792142.3    34597.712    36799.863   -74691.881   -675.03277    339.96128   -348.05787     77.11726    89.048033     81.36464    1795.5197 
   33700   -1792110.4    36601.123    36182.161   -73524.134    343.77037   -191.43492    342.09521    77.111672    89.041581    81.358744    1798.1839 
   33800     -1792122    38221.969    37507.415   -73001.611   -498.58227   -133.13686   -480.01883    77.103122    89.031708    81.349723    1804.8752 
   33900   -1792206.6    37582.984    38163.117   -73608.892    624.04346    93.184223   -633.82138    77.099403    89.027414      81.3458     1812.378 
   34000   -1792232.3    36128.631    36872.979   -72886.556   -421.77144    348.62948    87.517105    77.102772    89.031304    81.349354    1801.5189 
   34100   -1792207.5    36639.544    36128.734   -73761.682   -342.63676   -280.97283   -487.31576    77.108333    89.037726    81.355222    1793.1829 
   34200   -1792131.9    36587.164    36733.137   -74434.161   -434.86575   -146.71323   -396.20531    77.111316     89.04117    81.358369    1789.3142 
   34300   -1792096.5    36550.149    36698.468   -74415.232    416.55146    55.903639   -799.88968    77.109787    89.039404    81.356755    1797.0944 
   34400   -1792122.3    36833.073     37247.62   -73825.468   -893.68875   -543.10892    398.86042    77.105679    89.034661    81.352421    1802.2901 
   34500   -1792141.4     37664.82    36611.372   -73923.046   -654.83401   -525.01545   -67.069094     77.10224     89.03069    81.348793    1799.8154 
   34600   -1792215.9    37470.272    36251.737   -72771.392   -737.59013   -453.85389   -242.72331     77.10011     89.02823    81.346545    1804.1797 
   34700   -1792233.1    36537.051    36968.534   -73559.464   -285.57106   -603.95506    339.46088     77.10115    89.029431    81.347643    1803.7022 
   34800   -1792246.3    36219.051    36428.665   -73864.171   -35.802624   -735.29462   -464.36156    77.104034    89.032762    81.350686    1804.4384 
   34900   -1792164.2     36528.96    37338.736   -72987.382   -291.48371    631.37622   -671.98632    77.106228    89.035295    81.353001    1795.8544 
   35000   -1792127.6    35293.056    37504.298   -73063.085   -542.76019    662.64105   -130.19617    77.107745    89.037047    81.354601    1799.3063 
   35100   -1792162.9    37135.874     36837.57    -74014.85    -97.78089    519.74083    -238.4707    77.108044    89.037392    81.354917    1807.2002 
   35200     -1792150    36427.028    36854.382    -73364.44    164.90831   -390.71875    201.32358    77.107449    89.036705    81.354289    1798.7456 
   35300   -1792178.3    34845.123    36946.025   -74179.641    44.948948    690.98185   -1.7389493    77.104981    89.033855    81.351685    1790.6941 
   35400   -1792217.5    36865.328    37822.149    -72622.91    190.07197    449.06179    292.23013     77.09899    89.026937    81.345363    1794.2593 
   35500     -1792162    37382.352    38100.654   -71669.197    789.60025     340.8104  -0.88659995    77.096018    89.023505    81.342228    1794.7267 
   35600   -1792152.4    36076.795    37672.489   -72681.226    206.36658    274.34834   -165.39682    77.101579    89.029927    81.348095     1809.944 
   35700   -1792135.6    34703.068    36620.354   -73962.044    495.61401    785.42359    432.00713    77.112583    89.042633    81.359705    1810.0188 
   35800   -1792137.8    35018.731    34326.815   -74247.413   -294.66867    218.13428    -123.3527    77.121494    89.052922    81.369107    1803.4685 
   35900   -1792166.1    34633.445    35244.817   -74457.955   -307.45934   -79.061444   -69.261308    77.118696    89.049692    81.366156    1797.8377 
   36000   -1792238.9     34907.43    36492.344    -73318.47    1016.3789   -56.206707    712.42501     77.10504    89.033923    81.351747    1801.9226 
   36100   -1792232.3    37586.911     38500.38   -71610.924    122.77099    298.99547    701.77162    77.089377    89.015837    81.335222    1799.8362 
   36200   -1792176.5    38700.252    38853.692   -70776.417   -696.75428   -248.01094   -208.75113     77.08392    89.009536    81.329464    1798.0232 
   36300   -1792202.1     38250.61    37712.335    -71961.99    134.86504   -754.59169    25.968007     77.09441    89.021649    81.340532    1811.2488 
   36400   -1792132.9    35397.088    35107.697   -74460.193    310.42335   -682.42527    363.45337    77.115435    89.045926    81.362715    1804.0552 
   36500   -1792178.2    32408.807     33482.88   -76783.209    209.31192   -84.853508     386.7116    77.132326     89.06543    81.380536    1800.3496 
   36600   -1792197.1    32921.171    33843.494   -76406.383    385.70946   -133.20171    178.01363    77.129576    89.062255    81.377634    1792.4863 
   36700     -1792196    36802.545    36636.561   -73578.658    337.13778   -78.453257    589.19159    77.105846    89.034854    81.352598    1795.3984 
   36800     -1792178    39220.431    40602.162   -71083.236   -130.30308    419.39583    303.48695    77.079613    89.004562     81.32492    1800.0958 
   36900   -1792183.5    40320.565    40411.771   -69794.071   -333.80069     146.8683   -314.87124    77.073273    88.997241    81.318231    1800.5851 
   37000   -1792166.2    38800.382    37468.734   -72235.612   -475.04555   -107.62466    455.20513    77.091811    89.018648     81.33779    1794.7671 
   37100   -1792219.6    34644.972    35062.483   -74855.225    604.54933   -337.60378   -359.06775    77.120441    89.051707    81.367997    1799.1618 
   37200   -1792183.6    32695.128    32649.473   -75846.865    -114.8916    111.97008    135.73681    77.138708      89.0728     81.38727    1801.0808 
   37300   -1792089.4    34755.619     34239.53    -76111.49   -228.63915    288.45091   -286.43715    77.132129    89.065203    81.380328    1802.8269 
   37400   -1792096.4    37348.553     38237.95    -73804.17    536.52405   -219.07873    646.73997    77.108137    89.037499    81.355015    1803.0202 
   37500   -1792138.1    38591.787    40307.192   -71371.369    238.60534   -80.153134    689.82046    77.085593    89.011467    81.331229    1798.0856 
   37600     -1792184    39383.374    40349.891    -71434.88   -393.51433   -539.65148    213.93478    77.079999    89.005008    81.325327    1796.8938 
   37700   -1792196.3    38926.167    36940.523   -72582.004    169.18681   -733.09373    930.26166    77.092833    89.019827    81.338867    1796.0122 
   37800   -1792158.7    35246.043     35844.02   -73413.625    664.21532    238.03643    1275.5092     77.11298    89.043092    81.360124    1792.1797 
   37900   -1792226.4     34876.02     33524.74   -75019.329    -462.8023   -1068.5256    187.64285    77.125968    89.058089    81.373828     1815.841 
   38000   -1792134.1    34362.708    34229.534   -74956.702    98.176263   -1183.2429    243.44254    77.124438    89.056322    81.372214    1810.5476 
   38100     -1792119     35605.95     36200.47   -73960.667    442.03479   -260.69624    793.08546    77.110928    89.040722    81.357959    1802.4728 
   38200     -1792256    37880.783    38767.931   -71831.838    730.17631    619.71519    1309.1198     77.09527    89.022642    81.341439    1813.0893 
   38300   -1792249.7    38462.625     37995.13     -72201.3   -1017.1516   -32.125782   -841.26883    77.089104    89.015522    81.334934     1806.483 
   38400   -1792284.8     36994.75    38399.992   -72897.644    824.69061    176.05714    709.06757    77.094846    89.022152    81.340991    1809.2313 
   38500   -1792203.6    36010.802    36748.324   -73815.725    727.97566    1.2798709    804.25977    77.108083    89.037437    81.354958    1799.2263 
   38600   -1792092.1    35761.852    36133.283   -73795.519    491.12561    37.999702    765.10645    77.117962    89.048845    81.365381    1796.3962 
   38700   -1792069.4     36036.63    35985.174   -72909.579   -731.46454   -749.10396   -1192.2131    77.119618    89.050756    81.367128    1806.2011 
   38800   -1792111.7     35342.22    36298.685   -73891.651    -80.37595    368.65476    120.95162    77.116002    89.046581    81.363313    1804.3967 
   38900     -1792118    36525.379    37197.624   -73063.414    635.59787    194.15817    521.59206    77.107893    89.037217    81.354757    1793.6112 
   39000   -1792154.2    37602.603    36724.058    -72295.28   -196.63161     69.96515   -347.60354    77.099247    89.027234    81.345635     1793.215 
   39100   -1792194.2    37769.083    37826.168   -72326.652    130.69727   -396.41771    585.65119    77.095685    89.023121    81.341877    1796.5695 
   39200   -1792199.8    37623.468     37830.33   -72328.978   -32.224041   -299.61967    209.36809    77.100142    89.028267    81.346579    1798.6274 
   39300   -1792127.3    36391.753    36612.908   -73539.013    772.51263    140.81332    1287.6254    77.109814    89.039436    81.356784    1801.8572 
   39400   -1792143.1     35892.31    34929.026   -73332.232     968.0806    280.10237    710.46451    77.118136    89.049045    81.365565    1810.9991 
   39500   -1792168.7    34072.126    35565.747   -74869.922   -903.20442   -339.85194    404.35879    77.119069    89.050122    81.366549    1806.5524 
   39600   -1792149.2    35352.164    35941.895   -73470.253    311.84238   -242.14531    898.31961    77.110988    89.040791    81.358023    1792.4629 
   39700   -1792190.2    37542.059    37003.994   -72475.561   -255.97436   -165.94211   -234.15086    77.099142    89.027113    81.345524    1796.7532 
   39800   -1792238.4    37638.465    37833.474    -71745.01   -330.99778    140.96818    -555.5975    77.091256    89.018007    81.337204     1805.028 
   39900   -1792208.1     37016.87    38876.195   -71876.667   -541.42447    652.44593   -334.16958    77.093275    89.020338    81.339334      1802.29 
   40000   -1792163.5    36818.494    36190.067   -73032.472    118.54923    -285.4623    116.89956     77.10353    89.032179    81.350154    1800.8912 
   40100   -1792101.6    35786.396    35536.839   -74219.716   -93.502115   -62.757726   -161.86375     77.11453    89.044881     81.36176    1800.3205 
   40200     -1792141    34335.292    36107.121   -74382.838    -564.1503    1159.5764    -138.0105    77.119307    89.050397      81.3668    1806.1006 
   40300   -1792168.7    36034.119    35302.662   -74152.708    544.62832    254.75805    286.93317    77.115364    89.045844     81.36264    1799.0309 
   40400   -1792216.6    36963.081    36267.769   -73418.964   -6.2288465   -762.65298    102.95294    77.105298    89.034221    81.352019    1796.1234 
   40500     -1792237    37942.358    36716.556   -72948.544   -771.39509    420.84161    534.05739    77.095277    89.022649    81.341446    1799.7016 
   40600   -1792231.1    37971.236    38427.348   -72377.152   -207.41167    781.64458    -16.20049    77.091797    89.018631    81.337774    1805.5709 
   40700   -1792160.8    38498.786    37584.502   -71562.336    1192.1597     518.4578    187.75498    77.097874    89.025648    81.344186    1810.4574 
   40800   -1792067.8    36631.326    36730.539   -73219.443   -581.64541   -43.931132   -514.26441    77.111659    89.041566     81.35873    1811.2379 
   40900   -1792107.9    35022.722    35616.568   -75069.324   -664.16944    298.78794   -468.50172    77.122813    89.054446    81.370499     1807.557 
   41000   -1792149.3    35284.582    33852.251   -74444.373    301.74691   -44.559792    -394.6089    77.122635    89.054241    81.370311    1801.5108 
   41100   -1792167.3     35882.91     35591.95   -73453.519   -655.84169    239.23374   -185.01142    77.110458    89.040179    81.357464    1796.7447 
   41200   -1792176.1    38162.269    37466.267   -72760.505   -808.75272    -690.7782   -680.92326    77.094506     89.02176    81.340633     1794.238 
   41300   -1792214.7     38913.36    38253.125   -71719.587    116.06443   -682.02548     665.3541    77.085347    89.011184     81.33097    1796.7159 
   41400   -1792286.8    38352.104    38227.391   -72304.804    -49.84934    230.74183   -440.67797    77.090099     89.01667    81.335983    1803.5314 
   41500   -1792220.1    35061.688    37181.563   -73642.997   -289.18969     586.4597   -586.77749    77.104353    89.033129    81.351022    1797.8923 
   41600   -1792190.2    36081.712    35543.508   -74478.052    589.72221   -78.123631    462.18746    77.116169    89.046774    81.363489    1805.8691 
   41700     -1792145    35303.959     34628.93   -74964.236   -260.45153    233.98741   -238.05265     77.11911     89.05017    81.366592    1805.9297 
   41800   -1792147.7     36581.15    35541.476   -74094.305   -503.90996     331.8263   -926.39259    77.112455    89.042485    81.359571    1803.4914 
   41900   -1792234.5    37231.928    36362.233   -72987.228     365.7379   -150.43115    273.48107    77.101274    89.029575    81.347774     1798.744 
   42000   -1792228.7    37877.476    37603.412   -72449.258   -66.711196    326.50192   -287.56624    77.093106    89.020143    81.339156    1791.8718 
   42100   -1792279.8    37588.806    37388.485   -71816.815    279.67358   -742.59749    865.14615    77.092168     89.01906    81.338166     1805.048 
   42200   -1792213.1    36672.243    37003.351   -72650.826   -27.093872    610.00349   -418.48888    77.099172    89.027147    81.345556    1805.0476 
   42300   -1792109.9    35482.581    35930.674   -73050.976    719.37305    14.892017   -139.37399    77.109593    89.039181    81.356551    1795.3294 
   42400   -1792167.8    34517.271    34633.564   -73055.662    805.12361    606.23582   -345.27801    77.116696    89.047383    81.364046    1803.1282 
   42500   -1792197.3    34578.153    35469.869     -73145.3    251.70407    148.01524   -456.94014    77.115339    89.045815    81.362613     1802.647 
   42600   -1792221.9     36497.94    35956.122   -72137.365     377.7086    208.17918    348.86016    77.105941    89.034963    81.352698    1798.3132 
   42700   -1792202.8    37363.859    37019.393   -71463.305   -813.11147   -220.51258    150.88208    77.095152    89.022505    81.341314    1793.7248 
   42800   -1792199.6    37698.824    37967.196   -71190.139    6.2092267    113.50082   -323.97121    77.089736    89.016251      81.3356    1797.8003 
   42900     -1792185    37638.439    36937.789   -71765.533   -736.17111    -232.7244   -314.28495    77.094883    89.022195    81.341031    1806.8454 
   43000     -1792155    35240.271    36432.549   -73599.193    790.03663     306.3269    692.08835    77.108826    89.038295    81.355742    1807.7656 
   43100   -1792127.6    34330.595    34880.603   -74488.942    -502.3824    162.99037   -651.34992    77.121802    89.053278    81.369432    1794.2073 
   43200   -1792237.7    34561.983    33830.615   -75020.452   -435.59459    78.811611   -421.57875    77.121885    89.053374     81.36952    1796.3215 
   43300   -1792162.9    35422.698    37352.977   -73780.324    413.36951    1013.4053    475.21545    77.107004    89.036191     81.35382    1791.0129 
   43400   -1792190.1     38458.43    39009.999   -71744.234   -676.07261    450.95644   -11.628475    77.088935    89.015326    81.334755    1803.6068 
   43500   -1792129.2    39610.241    38043.673   -71792.236    5.4033995   -136.44828    123.95463    77.085169    89.010978    81.330781    1797.2599 
   43600   -1792206.7    37220.579    38217.066   -73136.309   -224.83158    30.037656   -173.51173    77.096383    89.023926    81.342613    1800.3611 
   43700   -1792267.4    34938.024     35634.73   -74675.391    436.24426    460.42642   -206.78953    77.110616    89.040362    81.357631    1788.6293 
   43800   -1792307.9    35847.917    34945.612    -74303.99   -555.96541    149.11608   -303.70665    77.115352     89.04583    81.362627    1798.9588 
   43900     -1792174     35808.06     34427.18   -74247.108   -399.81852    131.22838   -555.86555    77.110045    89.039703    81.357028    1793.8078 
   44000   -1792138.4    36299.924    37655.552   -72625.173    16.730485    865.56972   -944.77896    77.099369    89.027374    81.345763     1797.401 
   44100   -1792174.7    37432.382    37926.747    -71488.84    88.886873   -289.29671   -568.59183    77.093536    89.020639    81.339609    1804.2635 
   44200   -1792195.6    37496.545    36433.485   -71400.093    278.85573   -623.45058   -84.163507    77.095917    89.023389    81.342122    1799.7525 
   44300     -1792212    36687.897    35782.732   -73073.418    258.29411    -208.1117   -465.65101    77.103484    89.032126    81.350105     1787.809 
   44400   -1792213.7    35188.855    35404.047   -74003.444     61.58995    271.90263   -220.61495    77.108427    89.037834     81.35532    1789.6419 
   44500     -1792198    36146.838    35665.851   -73617.382   -451.44833   -339.44238   -339.04903    77.108301    89.037689    81.355188    1796.0183 
   44600   -1792209.5    37402.135     37035.15   -72882.177   -129.33711   -71.748922   -192.23581    77.104573    89.033384    81.351255    1802.3007 
   44700   -1792183.4    36803.305    35961.827   -72945.515    442.11138    41.859574    372.67669    77.101167    89.029451    81.347661    1802.8102 
   44800   -1792102.6    37007.354    37554.797   -71641.265    367.94224    42.064937    1034.7507    77.100045    89.028156    81.346477    1795.6978 
   44900     -1792112    37461.309    36289.195   -72231.716   -532.38873    1164.2306    211.63945    77.104135    89.032879    81.350793    1798.8958 
   45000     -1792226    35394.844    36459.993   -73884.115    723.93298    694.93034    464.45989    77.108969     89.03846    81.355892    1807.1055 
   45100   -1792230.5     35558.47    35532.273   -73429.541    748.90769    96.278619    793.74156    77.110094     89.03976     81.35708    1797.4773 
   45200   -1792186.4    36410.753    36303.798   -72842.493   -59.527776    262.37531    -229.3219    77.106042    89.035081    81.352805    1791.1429 
   45300   -1792205.5    37291.926    36667.392   -72664.959   -293.07583   -27.322478   -359.52604    77.100204     89.02834    81.346645    1806.8498 
   45400   -1792158.5     37816.46     38282.53     -72808.1    117.92585    304.51802    204.39816    77.098453    89.026317    81.344797    1808.5964 
   45500   -1792128.1    37101.247    37204.625   -73160.015    683.60378   -288.03279    30.298183    77.104979    89.033852    81.351682    1799.9244 
   45600   -1792192.9    34994.425    35476.922   -74270.699    531.72906   -39.206851    219.38125    77.113334      89.0435    81.360498    1801.7626 
   45700   -1792175.8    35255.574    34902.146   -74713.788   -1084.8048   -377.80349   -32.263594    77.115881    89.046442    81.363186    1795.0458 
   45800   -1792157.2    35685.479    35936.707   -73571.141   -83.531413    264.87439   -85.212163    77.109288    89.038828    81.356229    1795.0945 
   45900   -1792058.6    37367.826    37435.661   -72401.111    594.11492     301.6672    200.18227     77.09937    89.027376    81.345765    1799.7226 
   46000     -1792112    37213.495    38666.086    -71407.74   -838.84646    359.37788   -577.31765    77.096499    89.024061    81.342736    1806.9036 
   46100   -1792155.6    36465.976    37034.298   -72397.504   -492.62343   -557.99294   -499.60512    77.103747     89.03243    81.350383      1800.03 
   46200   -1792202.4    35805.507    35394.594   -74097.265   -154.36978    393.23934     422.0379    77.112919    89.043021     81.36006    1800.8232 
   46300   -1792188.5    36136.622    34873.347   -72836.855    95.253543    306.78384    378.35125    77.116027    89.046609    81.363339    1798.7909 
   46400   -1792153.6    35424.399    36132.937   -73553.045   -128.58057    38.563607   -251.05548    77.111278    89.041126    81.358329    1798.6419 
   46500   -1792143.5    36814.168     37244.06   -72581.709   -303.55015    -366.1556    156.20913    77.104174    89.032923    81.350833    1810.3413 
   46600   -1792090.1    37006.026    37787.839   -72972.378   -230.83585    -56.13164   -478.04826    77.101452     89.02978    81.347961    1805.2889 
   46700   -1792162.2    37054.761    36615.955   -73118.796    544.85046   -175.06175   -159.43663    77.104413    89.033199    81.351085    1799.4918 
   46800   -1792155.5    35956.495    35828.249   -72381.662    129.18139    242.05835   -309.16154    77.108095    89.037451    81.354971    1793.0178 
   46900   -1792170.6    35784.048      35542.8   -72708.737    1004.9095    170.07723    292.22285    77.108202    89.037574    81.355083    1795.9016 
   47000   -1792176.3    35844.692    35579.078   -71765.598   -334.86414   -123.24757   -5.1212409     77.10563    89.034605     81.35237    1802.4764 
   47100     -1792113    37476.034    36774.255   -72768.934   -528.26298    -659.6232     74.18455    77.104053    89.032784    81.350706    1801.0503 
   47200   -1792126.1    37148.402    35990.998   -72775.699    1635.0122    298.03212    480.82462    77.105297     89.03422    81.352019    1805.4717 
   47300   -1792189.5    35849.672    36121.119   -73634.651     806.5583   -288.86981    470.08219    77.107291    89.036522    81.354122    1802.7495 
   47400   -1792231.6    36307.295    36664.795   -72906.212    80.469599    172.20388    954.11592     77.10682    89.035979    81.353625    1797.7917 
   47500   -1792133.1    36660.316    37288.505   -72766.603    601.69922    800.30637   -496.86568     77.10465    89.033473    81.351336    1786.0069 
   47600   -1792173.1    36844.072    37244.167   -71751.673   -11.434949    70.907889   -281.78727    77.102579    89.031082    81.349151    1801.8042 
   47700   -1792180.2    37060.248    36775.831   -72833.766    574.70909   -372.85945    551.30607    77.103622    89.032286    81.350251    1810.5222 
   47800     -1792110    36594.312    36430.218   -72884.632    47.480202   -809.97797   -513.38774    77.108381    89.037781    81.355272    1798.1722 
   47900   -1792221.7     34421.15    35971.643   -74219.164    454.66905    523.92219    81.482608    77.112756    89.042833    81.359888    1791.4249 
   48000   -1792163.4    35852.079    36572.045   -73848.225   -887.37144   -149.77983   -453.53954    77.109397    89.038955    81.356345    1785.0142 
   48100   -1792186.7    37432.111    36316.536   -72219.855   -125.23003   -478.26203   -15.607942    77.099453    89.027472    81.345853    1799.8578 
   48200     -1792194     37724.15     37414.11   -72110.606   -460.63606   -44.496102    56.464925    77.092709    89.019684    81.338737    1807.8574 
   48300   -1792123.1    38166.422    38523.442   -72621.669    418.95236    396.78144   -267.62515    77.094852    89.022159    81.340998    1796.2831 
   48400     -1792233    37052.814    36545.223   -74168.431    -367.9741   -12.285216   -802.31459    77.105041    89.033925    81.351749    1798.1745 
   48500   -1792221.4    36010.185    35907.755   -74801.415   -42.159918   -305.57744    20.240647    77.113889    89.044141    81.361083    1789.3131 
   48600     -1792255    35370.558    35435.753   -74805.332     103.2686   -79.247827   -271.79485    77.114399     89.04473    81.361622    1800.4841 
   48700   -1792165.5    35957.493    36769.926   -73277.694   -361.79628   -310.10676    486.89418    77.105354    89.034286    81.352078    1794.8725 
   48800   -1792155.9    37387.027    38838.899   -72764.091   -106.17831   -240.06944   -516.35862    77.094237    89.021449    81.340349    1797.7643 
   48900   -1792108.5    38991.494    37845.579   -71815.497     409.7356   -415.45969    11.411538    77.090928    89.017628    81.336858    1793.3158 
   49000   -1792211.7    37435.779    37125.148    -71982.71     57.14295   -618.10302     480.9691    77.097585    89.025315    81.343881    1800.2658 
   49100   -1792210.9    35851.931    35582.498   -74682.384   -724.80387   -801.95074   -562.23785    77.108857    89.038331    81.355775    1788.0427 
   49200   -1792172.3    35150.148    34946.934   -74070.118    360.17222   -497.07432   -256.56069    77.114652    89.045022    81.361888    1786.9616 
   49300   -1792176.8    35446.332    36423.368   -72788.644   -276.51142   -252.74785   -118.80535    77.109961    89.039606    81.356939    1801.0927 
   49400     -1792180    36699.425    37310.672   -72561.627   -1191.1822   -272.81921   -607.92756     77.10225    89.030702    81.348804    1804.7201 
   49500   -1792177.6    36774.103    37322.893   -71607.754   -333.13185    139.67535    73.934914    77.097546     89.02527    81.343841    1801.6857 
   49600   -1792210.2    35885.978    37091.896   -72483.528   -354.53575    76.082558   -658.92074    77.097707    89.025456     81.34401    1796.9556 
   49700   -1792229.2    36608.654    36189.846    -72693.17   -58.888439   -301.24202    239.02715    77.100669    89.028876    81.347136    1789.2634 
   49800   -1792314.1    36732.537    35968.011   -73471.669    101.36482   -533.61298    43.414358    77.102956    89.031517    81.349549    1795.6556 
   49900   -1792222.1    36677.985     37334.23   -72703.675   -203.01635   -35.101246   -246.15283    77.103572    89.032228    81.350198     1796.128 
   50000   -1792149.6    37440.951    36305.566   -72486.279   -106.68286   -690.87127   -21.880808    77.104152    89.032898    81.350811    1798.3918 
   50028   -1792197.9    36556.697    36232.314   -72282.847    227.90613   -419.39294   -347.34813    77.104551    89.033358    81.351231    1806.6017 
Loop time of 7052.8 on 15 procs for 50000 steps with 58275 atoms

Pair  time (%) = 4332.77 (61.4334)
Kspce time (%) = 1795.1 (25.4523)
Neigh time (%) = 97.3458 (1.38024)
Comm  time (%) = 112.168 (1.59041)
Outpt time (%) = 0.742161 (0.0105229)
Other time (%) = 714.671 (10.1332)

Nlocal:    3885 ave 3917 max 3826 min
Histogram: 3 0 0 0 0 1 2 4 1 4
Nghost:    18514.3 ave 18659 max 18383 min
Histogram: 3 3 0 0 0 3 3 0 0 3
Neighs:    1.4852e+06 ave 1.52787e+06 max 1.43555e+06 min
Histogram: 1 1 2 2 1 2 1 2 0 3

Total # of neighbors = 22278053
Ave neighs/atom = 382.292
Neighbor list builds = 1581
Dangerous builds = 0

unfix   1
fix          2 all nvt temp ${mytemp} ${mytemp} 0.01
fix          2 all nvt temp 1800 ${mytemp} 0.01
fix          2 all nvt temp 1800 1800 0.01
run      50000
PPPM initialization ...
  G vector (1/distance) = 0.308879
  grid = 72 80 75
  stencil order = 5
  estimated absolute RMS force accuracy = 0.00178753
  estimated relative force accuracy = 0.000124137
  using double precision FFTs
  3d grid and FFT values/proc = 58144 28800
Memory usage per processor = 10.2481 Mbytes
Step PotEng Pxx Pyy Pzz Pxy Pxz Pyz Lx Ly Lz Temp 
   50028   -1792197.9    36558.554     36234.17   -72289.664    227.90993   -419.39662   -347.34027    77.104551    89.033358    81.351231    1806.6017 
   50100   -1792158.1    35314.486    35772.707   -73023.951   -60.223003    52.515854   -150.09106    77.104551    89.033358    81.351231    1797.7258 
   50200   -1792167.4    34854.118    37073.933   -72622.066    614.55394   -30.779104    322.41527    77.104551    89.033358    81.351231    1797.4182 
   50300   -1792193.4    36638.733    36430.571   -72007.142    807.94699     136.0578    475.12036    77.104551    89.033358    81.351231    1795.5714 
   50400   -1792136.5    35693.634    37354.669   -72113.158   -272.13046    454.34665   -297.95487    77.104551    89.033358    81.351231     1796.619 
   50500     -1792165    37323.278    37073.443    -72393.14   -147.56043   -317.20163       542.61    77.104551    89.033358    81.351231     1801.306 
   50600   -1792184.9    36869.264    37264.618   -73040.744    539.45641    384.51624    774.53312    77.104551    89.033358    81.351231    1803.7966 
   50700   -1792151.6    36455.949    37256.732   -72495.767    199.75365   -781.23542    109.89678    77.104551    89.033358    81.351231    1806.7174 
   50800   -1792174.7    35759.889    36532.572   -72403.564   -98.107286    407.41706    166.72957    77.104551    89.033358    81.351231    1797.9732 
   50900   -1792190.3     36286.76     36414.53   -72570.833    868.97454   -757.35413    519.00388    77.104551    89.033358    81.351231    1809.9287 
   51000   -1792160.3    36633.552    37210.489   -73128.881    61.377263     235.9982   -116.30911    77.104551    89.033358    81.351231    1798.4041 
   51100   -1792197.1    36543.497    36474.324   -71857.754   -186.01365    186.91988     -177.168    77.104551    89.033358    81.351231    1803.4163 
   51200   -1792200.9    36421.774    36386.724   -72445.462    169.75297    254.00644    651.71722    77.104551    89.033358    81.351231    1801.4247 
   51300   -1792141.5    36756.799    35821.525    -71964.67   -935.36203   -508.55596   -956.39118    77.104551    89.033358    81.351231    1796.6567 
   51400   -1792194.9    36835.385    36297.067   -73516.777    -636.2726   -345.76836    359.68466    77.104551    89.033358    81.351231    1798.1057 
   51500   -1792235.3    36760.794    36380.045   -73537.429    22.323684   -504.36179   -199.28029    77.104551    89.033358    81.351231    1801.4337 
   51600   -1792151.2    36346.834    36657.823   -73381.421     27.59914   -113.52027   -856.72023    77.104551    89.033358    81.351231     1798.162 
   51700   -1792212.6    36264.523    37453.413    -73403.57     33.82812   -275.76007   -634.41192    77.104551    89.033358    81.351231    1807.7679 
   51800   -1792097.9    36480.846    37182.565   -72741.412   -614.38981    315.13364   -593.53865    77.104551    89.033358    81.351231    1812.2581 
   51900   -1792161.7    36513.742    37064.756   -73275.585    425.03629   -514.15846    414.01969    77.104551    89.033358    81.351231    1804.0503 
   52000   -1792202.8    34938.658    36515.663   -73822.934   -634.29921   -330.18929    170.70297    77.104551    89.033358    81.351231    1798.9878 
   52100   -1792144.3    37551.409    36647.661   -72857.841   -292.04937   -923.26411    366.91782    77.104551    89.033358    81.351231    1802.7633 
   52200   -1792204.2     37157.27    36434.527   -73113.722   -781.74698   -791.18398   -13.404382    77.104551    89.033358    81.351231    1798.8796 
   52300   -1792145.8    36450.864     37958.57   -73090.319    11.666768      590.545    144.41452    77.104551    89.033358    81.351231    1788.8491 
   52400   -1792192.1     36771.93    36998.305   -73153.712    62.857913   -673.49066      725.594    77.104551    89.033358    81.351231    1799.1885 
   52500     -1792223    36267.163    36012.325   -73335.994    143.88559   -436.58519   -141.19258    77.104551    89.033358    81.351231    1808.6107 
   52600   -1792203.5    35811.304    36780.265   -73460.675   -110.76535    412.47975    130.33798    77.104551    89.033358    81.351231    1795.3007 
   52700   -1792163.7    36918.777    37698.837   -73033.994    19.173795   -267.95532   -661.35194    77.104551    89.033358    81.351231    1801.8453 
   52800   -1792186.4    37273.358    36527.967   -73597.751    151.24744   -499.29262    -402.2358    77.104551    89.033358    81.351231    1800.6413 
   52900   -1792210.3    36566.175    37648.172   -72847.695   -186.71076    100.62176   -403.40771    77.104551    89.033358    81.351231    1799.6923 
   53000   -1792176.6    37183.357    36628.864   -74180.891   -387.54709    -183.0159    405.46946    77.104551    89.033358    81.351231     1791.974 
   53100   -1792131.6    37269.191    37049.555   -72535.136    56.401897     419.2811    211.59264    77.104551    89.033358    81.351231    1797.9427 
   53200   -1792191.2    36856.797     36364.29   -73194.354    346.10366   -228.28546    367.90636    77.104551    89.033358    81.351231    1801.4346 
   53300   -1792169.8    36938.341    36606.145   -73054.132    -301.5745    796.09753   -692.56515    77.104551    89.033358    81.351231    1795.8546 
   53400     -1792188    35388.335    36222.583   -72916.672    389.09716    122.11686   -395.81637    77.104551    89.033358    81.351231    1805.5398 
   53500   -1792164.6    35651.868    37264.494   -72666.527     407.8946    480.80125     45.03734    77.104551    89.033358    81.351231    1808.8513 
   53600   -1792133.8    36547.577    37224.761   -73146.864   -287.23285   -15.424185   -349.28426    77.104551    89.033358    81.351231    1802.6834 
   53700   -1792202.5    36714.648    37335.475   -72529.527   -840.17722    183.50442    33.165263    77.104551    89.033358    81.351231    1806.4384 
   53800   -1792205.2    37939.003    36512.225   -73154.416    320.89259   -736.03431    90.832632    77.104551    89.033358    81.351231    1808.0653 
   53900   -1792150.4     36239.81    36263.825   -73424.733   -800.94782    120.22635   -104.05144    77.104551    89.033358    81.351231    1794.9776 
   54000   -1792202.3    36030.322    36105.931   -73332.888   -455.19191   -300.91805    146.73558    77.104551    89.033358    81.351231    1792.2186 
   54100   -1792190.7    37614.829    35810.899   -73380.086    635.11677    146.09456    280.95484    77.104551    89.033358    81.351231    1804.4234 
   54200     -1792194    36377.227    36011.009   -72802.784   -450.61317    -651.6567   -764.18992    77.104551    89.033358    81.351231    1811.2272 
   54300   -1792214.3    35983.012    36510.694   -73248.791   -331.62841   -548.39684    -178.7716    77.104551    89.033358    81.351231    1803.2437 
   54400   -1792173.7    36917.918    36405.302   -72134.801    37.027519   -946.00631    134.09605    77.104551    89.033358    81.351231    1811.2244 
   54500   -1792249.4    36803.239    35633.329   -72930.722    205.56578   -686.27533    286.01329    77.104551    89.033358    81.351231    1799.9322 
   54600   -1792205.4    36149.897    36396.295   -72433.898   -406.23195   -323.29044    541.10055    77.104551    89.033358    81.351231    1805.7702 
   54700   -1792128.9    37854.926    36856.608   -73668.809   -569.33316   -935.44317   -159.58062    77.104551    89.033358    81.351231    1805.7802 
   54800   -1792154.3    37439.771    36723.588   -73637.665   -285.33419   -130.48914   -332.14801    77.104551    89.033358    81.351231    1814.8795 
   54900   -1792222.2     35464.76     36261.02   -74057.904    365.18845   -160.76983    628.67598    77.104551    89.033358    81.351231    1796.0744 
   55000   -1792214.8    35474.749     37478.39   -73419.971    102.30128    44.936713   -1.8704224    77.104551    89.033358    81.351231    1804.3565 
   55100   -1792201.6    35654.098    35684.986   -73169.699    187.66268   -678.20497    143.93094    77.104551    89.033358    81.351231    1796.9943 
   55200   -1792116.7    37067.543    36236.168   -72296.748    202.83717   -421.73193   -132.26382    77.104551    89.033358    81.351231    1807.6203 
   55300   -1792151.9    36692.133     36845.42   -72537.492   -476.38938   -160.10271   -341.86624    77.104551    89.033358    81.351231    1792.6714 
   55400   -1792201.1    35989.343    35662.435   -73163.536   -49.794057     157.3289    184.94779    77.104551    89.033358    81.351231    1803.5445 
   55500   -1792161.7    36677.052    36598.592   -73070.824   -405.30043    1012.5459   -203.40881    77.104551    89.033358    81.351231    1807.2661 
   55600   -1792208.1     35627.37     36669.14   -74079.781    217.77012    799.91031    278.07529    77.104551    89.033358    81.351231    1792.0455 
   55700   -1792092.2    37262.849    36984.073   -72828.219   -202.63349    484.40211    354.08269    77.104551    89.033358    81.351231    1801.1301 
   55800     -1792242    36154.855    36416.653   -74262.362    1265.1691   -384.37429    471.54763    77.104551    89.033358    81.351231    1790.6628 
   55900   -1792189.8    37154.697    36947.168   -74587.094    85.573803    766.77998   -653.74085    77.104551    89.033358    81.351231    1798.4469 
   56000   -1792122.9    38013.223    36928.314     -73960.1    301.97663   -903.48944    120.70467    77.104551    89.033358    81.351231    1805.9773 
   56100   -1792260.2    36853.385    36291.601   -74735.624   -515.23532     406.1044   -332.35651    77.104551    89.033358    81.351231    1791.9018 
   56200   -1792201.4    37083.595    36438.792   -73880.227   -219.20989     102.1556    -206.7862    77.104551    89.033358    81.351231    1797.7271 
   56300   -1792194.8    35978.611    36703.517   -73745.935   -475.22823   -245.95369     306.2144    77.104551    89.033358    81.351231    1799.0615 
   56400   -1792227.1    36968.344    36498.947    -72608.52    367.09469    454.12976   -171.16531    77.104551    89.033358    81.351231    1806.4311 
   56500   -1792267.6    36210.773    36413.021   -73449.751   -581.29228   -291.86226    307.17156    77.104551    89.033358    81.351231    1799.4773 
   56600   -1792151.1    36003.125    37589.868   -72622.163    79.028771    126.86892   -94.160241    77.104551    89.033358    81.351231    1801.6735 
   56700   -1792177.9    36721.029    36896.872   -73251.907    339.93717   -541.23802    117.66516    77.104551    89.033358    81.351231      1800.89 
   56800   -1792121.3    36357.501    36545.489   -71863.231   -470.34233    254.90352   -105.30837    77.104551    89.033358    81.351231    1805.1842 
   56900   -1792235.8    35803.194      35972.7   -72721.203    635.29223    268.47795     93.00471    77.104551    89.033358    81.351231    1793.4951 
   57000   -1792174.1    36414.122    36482.288   -72849.455   -350.77542    661.02997   -94.473303    77.104551    89.033358    81.351231    1798.3226 
   57100   -1792232.1    35715.175    36249.218   -73560.143   -109.30432   -396.57097    217.22461    77.104551    89.033358    81.351231    1797.2742 
   57200   -1792136.4    37092.238    38118.377   -72464.204   -303.59338    -478.9329   -134.19703    77.104551    89.033358    81.351231    1807.6782 
   57300   -1792207.8    36649.941     36707.07   -73521.328    514.27581    165.46171    834.43768    77.104551    89.033358    81.351231    1801.6801 
   57400   -1792166.5    36458.084    36764.484   -73120.879   -86.834432    -117.4767    562.80638    77.104551    89.033358    81.351231    1793.2614 
   57500   -1792234.8     35868.78    36950.115   -73119.778    1190.2073    489.24825    1064.3342    77.104551    89.033358    81.351231    1806.5103 
   57600   -1792203.7     36058.62    36926.468   -72358.249    531.78607   -283.73456    994.66996    77.104551    89.033358    81.351231    1809.0491 
   57700   -1792199.9    35719.871    36672.683   -72797.697   -168.97936   -57.776667    354.07484    77.104551    89.033358    81.351231    1799.0762 
   57800   -1792167.5    36694.708    36958.484   -71969.485    53.569679   -270.43094    503.37615    77.104551    89.033358    81.351231     1799.019 
   57900   -1792187.5    36551.778    37762.431   -72763.699    284.16163      400.333    84.092613    77.104551    89.033358    81.351231    1796.6448 
   58000   -1792184.5    36733.147    37219.136   -73202.435   -92.549852    50.702616    434.12224    77.104551    89.033358    81.351231    1799.6123 
   58100   -1792186.7     36613.98    37250.449   -72800.121    315.36482    398.89518    69.972521    77.104551    89.033358    81.351231    1804.8083 
   58200   -1792148.7    36125.491    37600.396   -73075.562    479.54523    974.26843    220.11069    77.104551    89.033358    81.351231    1795.8904 
   58300   -1792180.2    34926.686    37344.297   -73012.883    252.38822    368.68099    297.18018    77.104551    89.033358    81.351231    1792.9388 
   58400     -1792218    36221.325    37241.574   -72141.069   -360.75802    385.11842   -504.87526    77.104551    89.033358    81.351231    1800.6043 
   58500   -1792184.7    36704.083    36714.923   -72061.826    541.10289    6.2491897   -35.069485    77.104551    89.033358    81.351231    1799.7724 
   58600   -1792279.5    35740.025    36533.328   -73552.983   -2.3568133    639.40248   -676.42962    77.104551    89.033358    81.351231    1798.9021 
   58700   -1792264.5    36629.345    36032.439   -73856.312    156.72144   -7.8654867    682.88388    77.104551    89.033358    81.351231    1803.3381 
   58800   -1792268.8     36898.38    35549.062   -73465.106   -421.15306   -188.88627     354.1713    77.104551    89.033358    81.351231    1800.3861 
   58900   -1792143.9    37953.476    36877.656    -72751.47    234.38049    153.57744   -385.00737    77.104551    89.033358    81.351231    1809.5965 
   59000   -1792238.2    36310.863    36280.866   -72945.397   -602.69943   -33.182781   -639.57309    77.104551    89.033358    81.351231    1801.3749 
   59100     -1792155    36388.897    36361.472   -73895.559   -768.00951   -731.81609   -613.95422    77.104551    89.033358    81.351231     1799.028 
   59200   -1792157.2    37276.682    36044.787   -73111.863   -547.61006    66.666601   -146.44273    77.104551    89.033358    81.351231    1793.0637 
   59300   -1792230.6    36057.436    36556.552    -74008.46     252.9727    -4.751429    280.35584    77.104551    89.033358    81.351231     1796.828 
   59400     -1792291    36821.865    35857.722     -74468.8    100.81789    198.14152    -19.73402    77.104551    89.033358    81.351231    1795.3958 
   59500   -1792167.1    36269.552    35535.954   -73131.439    474.17404   -634.39701    89.872475    77.104551    89.033358    81.351231    1794.9642 
   59600   -1792221.5    35799.447    36835.343   -72810.189    48.772267   -186.33152   -329.09358    77.104551    89.033358    81.351231    1802.9652 
   59700   -1792122.4    37238.829    37533.675   -72650.468   -249.35733   -263.76049    204.94947    77.104551    89.033358    81.351231    1806.7733 
   59800     -1792155    37138.991    36973.487   -73153.248    48.729662    262.96791   -336.49309    77.104551    89.033358    81.351231      1804.39 
   59900   -1792115.9    37440.346    37596.235   -72713.351    254.02581    393.05123     50.90105    77.104551    89.033358    81.351231    1793.4783 
   60000     -1792168    37505.309    35573.771   -73959.292   -841.08381    314.96903    96.865724    77.104551    89.033358    81.351231    1804.5705 
   60100   -1792177.8    37501.668    35377.728    -73134.93    303.01691    37.215701   -203.77615    77.104551    89.033358    81.351231    1815.9294 
   60200   -1792152.9    37138.693    36676.389   -73404.341    966.02395    192.29733    84.772283    77.104551    89.033358    81.351231    1793.5436 
   60300   -1792222.9    36961.979    36879.796   -72907.293     702.6503    139.49182    543.48152    77.104551    89.033358    81.351231    1805.3938 
   60400   -1792260.3    35903.851    36364.705       -73666   -434.47077   -538.22593    -219.4492    77.104551    89.033358    81.351231    1787.8029 
   60500   -1792238.4    35826.874    36016.359   -73476.583    -1142.179   -1060.0171   -518.19531    77.104551    89.033358    81.351231    1808.1088 
   60600   -1792182.3    35642.991    37067.582   -73188.405   -320.51572   -34.683074   -268.94919    77.104551    89.033358    81.351231    1794.7651 
   60700   -1792185.9    36538.395    35311.398   -71881.626    990.18611   -29.270271    791.92028    77.104551    89.033358    81.351231    1799.6322 
   60800   -1792157.7    36378.295    36774.301   -72611.756   -406.19908    413.21163   -111.88615    77.104551    89.033358    81.351231     1803.161 
   60900     -1792213    36541.011    37237.161   -73160.724    177.44939   -84.611978    273.17919    77.104551    89.033358    81.351231    1791.7895 
   61000   -1792188.7    36531.497    36435.549   -72862.191    846.08406    383.54773    144.75067    77.104551    89.033358    81.351231    1803.8759 
   61100   -1792216.7    36629.355    36787.394   -73809.375    207.31662    1023.5116    13.973273    77.104551    89.033358    81.351231     1795.567 
   61200   -1792185.8    36900.021    36807.696    -73024.43   -12.157906    5.7745471    142.49359    77.104551    89.033358    81.351231     1804.028 
   61300   -1792154.4    36536.236    36783.359   -72800.967    526.17321    469.74558   -512.81981    77.104551    89.033358    81.351231    1808.4732 
   61400   -1792110.9    36864.237    37360.064   -72783.002    525.32287    348.71001    47.920805    77.104551    89.033358    81.351231    1800.5399 
   61500   -1792150.7    36475.841    35613.517   -73666.436    84.015733   -333.24935    168.95638    77.104551    89.033358    81.351231    1801.4199 
   61600   -1792123.6    38181.472     36365.51   -72064.816     224.1925   -505.44376   -86.555058    77.104551    89.033358    81.351231    1798.2374 
   61700     -1792192     36880.58    37258.238   -73778.483   -7.2133662   -688.26967   -334.73848    77.104551    89.033358    81.351231    1809.1878 
   61800   -1792169.3    37007.072    36244.704   -73672.524     273.1007    -241.5147    514.28481    77.104551    89.033358    81.351231    1793.7291 
   61900   -1792203.1    36409.588    35858.543   -73814.807    892.25811    154.72743    161.73186    77.104551    89.033358    81.351231    1803.7158 
   62000   -1792133.9    36048.483    37294.526   -72878.603   -790.88675   -149.09371   -416.20253    77.104551    89.033358    81.351231    1798.7985 
   62100   -1792214.5    37488.864     35957.21   -72391.155    564.74047    278.90603   -208.10412    77.104551    89.033358    81.351231    1799.1202 
   62200   -1792186.5    36027.575    36951.727   -72478.548   -358.93537    49.813465   -496.22447    77.104551    89.033358    81.351231    1790.2378 
   62300     -1792139    35751.377    37653.027   -72252.507   -248.07697    691.58129   -344.42311    77.104551    89.033358    81.351231    1799.6867 
   62400   -1792185.7    36585.028    37055.167   -72124.849    158.61415    4.3990877   -248.29015    77.104551    89.033358    81.351231    1799.8756 
   62500   -1792264.5    35795.009    36369.005    -72782.87    10.347032    369.53944    30.453192    77.104551    89.033358    81.351231     1811.451 
   62600     -1792210    36426.953    36540.068   -73585.454    219.38533    56.337883   -245.66534    77.104551    89.033358    81.351231    1800.6541 
   62700   -1792240.6    36648.197    36161.254   -73978.518    417.90109   -1.2358076   -381.85867    77.104551    89.033358    81.351231    1802.6641 
   62800   -1792234.4    35731.057    37557.631     -74634.5    547.35155    520.72661   -517.96507    77.104551    89.033358    81.351231    1788.7318 
   62900   -1792167.4    37518.272    37200.676   -73211.945    548.67386   -274.28016    -78.27778    77.104551    89.033358    81.351231    1796.5325 
   63000   -1792141.7    36800.783    36640.122    -73631.34    265.04866   -283.99088    512.88489    77.104551    89.033358    81.351231    1804.0619 
   63100   -1792243.4     35990.17    37763.972   -73113.202   -419.05097    311.82805    60.574673    77.104551    89.033358    81.351231    1800.8378 
   63200   -1792219.6    36191.688    36828.547   -73586.139   -10.776128    1139.5687    46.208278    77.104551    89.033358    81.351231    1796.8482 
   63300   -1792143.3     35980.17    36941.054   -72440.447   -324.32952    564.28473   -53.574611    77.104551    89.033358    81.351231    1781.0153 
   63400   -1792138.3    36932.436    38209.245   -73439.069    -676.0627    933.03519   -671.48452    77.104551    89.033358    81.351231    1802.5797 
   63500   -1792128.3    36625.815    37000.273   -73151.581   -222.49755    511.04138   -276.51665    77.104551    89.033358    81.351231    1803.3851 
   63600   -1792223.8    36636.072    36566.284    -73514.44    110.43618   -277.93892    -272.0773    77.104551    89.033358    81.351231    1799.1282 
   63700   -1792180.5    36272.167    37603.096   -72789.491    522.46083      52.2926     460.5289    77.104551    89.033358    81.351231    1802.2535 
   63800   -1792184.5    36320.982    36907.524   -73402.374    234.77511   -146.09995    220.86783    77.104551    89.033358    81.351231    1801.9881 
   63900   -1792190.1    37428.859    35502.905   -73734.847   -388.92507   -207.02732   -994.12453    77.104551    89.033358    81.351231    1804.6743 
   64000   -1792207.8     36494.33    36469.232   -74075.013   -233.24612    429.75832    -157.8887    77.104551    89.033358    81.351231    1796.3652 
   64100   -1792178.8    36978.953    36427.283   -73423.398    97.803208   -478.17452   -986.52891    77.104551    89.033358    81.351231    1809.3264 
   64200   -1792186.8    37499.839    36972.076   -73380.945   -46.011574   -849.13953   -1395.3172    77.104551    89.033358    81.351231    1803.1991 
   64300   -1792174.4    37233.726    36811.942   -73441.963   -259.45358   -213.94539    9.3712722    77.104551    89.033358    81.351231    1795.1354 
   64400   -1792266.1    35676.552    35831.023   -73667.709    885.73526    557.20724   -244.66296    77.104551    89.033358    81.351231    1801.3728 
   64500   -1792205.1    36376.726    36971.942    -72782.25    266.44522   -88.885556   -468.20087    77.104551    89.033358    81.351231    1803.5811 
   64600   -1792147.8    36509.643    36490.415   -72815.692    328.40377    314.39982   -10.700541    77.104551    89.033358    81.351231    1797.7061 
   64700   -1792063.7    36618.252    36926.998   -72357.114      610.082    -112.3767   -15.043832    77.104551    89.033358    81.351231    1797.7684 
   64800   -1792179.1    36226.449    35845.107   -72666.891    243.45393    38.976558    420.01758    77.104551    89.033358    81.351231    1802.6939 
   64900   -1792114.3    37034.875    35769.083   -72216.959    237.37048   -172.05918     1047.441    77.104551    89.033358    81.351231     1792.907 
   65000   -1792220.6    35901.894     36526.74   -73941.274    583.00049   -95.747029    117.39912    77.104551    89.033358    81.351231    1795.4718 
   65100     -1792168    36674.672    37161.818   -73749.707    189.56037   -391.17482    477.76342    77.104551    89.033358    81.351231    1804.8845 
   65200   -1792228.3     36174.55    37777.001   -73646.013    231.89336    176.14218    55.905144    77.104551    89.033358    81.351231    1802.7657 
   65300   -1792219.7    36614.121     37632.91   -73846.765     492.5318   -528.07473    434.23718    77.104551    89.033358    81.351231    1798.5728 
   65400   -1792239.3    37015.834    36946.547   -74019.249   -67.469186    -679.1929    13.891596    77.104551    89.033358    81.351231    1801.4733 
   65500   -1792209.8    36541.386    36695.086   -73400.689   -94.901099    1446.9248   -385.23175    77.104551    89.033358    81.351231     1804.989 
   65600   -1792114.6    37076.943    36679.198   -73018.601    -164.7702   -319.53017   -257.39651    77.104551    89.033358    81.351231    1796.1587 
   65700   -1792167.4    36893.886     36526.79   -73966.412   -331.02405    -133.9685    -334.0547    77.104551    89.033358    81.351231    1794.1133 
   65800   -1792221.5     37021.25    36565.171   -73927.615    -460.0186   -22.380863   -57.216321    77.104551    89.033358    81.351231     1797.324 
   65900   -1792180.1    36180.853    36461.904   -73823.095   -291.06724    1235.9416    -632.2841    77.104551    89.033358    81.351231    1796.3021 
   66000     -1792163     37068.49    37455.674   -73509.384    184.40034    888.33354   -223.67706    77.104551    89.033358    81.351231    1805.8155 
   66100   -1792171.2    35850.083    37689.333    -73303.57   -366.29708    800.99984   -746.13708    77.104551    89.033358    81.351231    1794.9553 
   66200   -1792231.8    35171.972    36846.125   -74397.946    109.54129    1086.5676    10.901381    77.104551    89.033358    81.351231    1783.2391 
   66300     -1792173    36363.073     36827.88   -72509.251   -243.11987    460.61586    433.18743    77.104551    89.033358    81.351231    1799.4786 
   66400   -1792224.5    36104.116    37262.349   -72133.597    344.30428    1112.7391   -285.22195    77.104551    89.033358    81.351231    1812.8722 
   66500   -1792235.2     35822.13    37255.085   -73064.813   -201.56657    487.00227      676.541    77.104551    89.033358    81.351231    1809.5885 
   66600   -1792191.7    35705.096    37083.319   -72552.977   -289.69705   -237.99273    -484.5459    77.104551    89.033358    81.351231    1801.0634 
   66700   -1792120.8    37070.287    36617.097   -73344.863    26.630434   -369.19505   -333.72877    77.104551    89.033358    81.351231    1803.4081 
   66800   -1792194.9    37306.145    36735.279   -72950.533    78.229603   -867.79514   -225.42055    77.104551    89.033358    81.351231    1797.5754 
   66900   -1792161.1    36866.902    36444.842   -73308.898   -333.00487   -30.972129    -541.7538    77.104551    89.033358    81.351231    1807.8341 
   67000   -1792225.2    36305.945    36345.011   -73826.537   -812.62956   -749.64268   -506.91325    77.104551    89.033358    81.351231     1800.258 
   67100   -1792261.1    36480.624     36433.61    -73697.18    50.196544   -143.23449   -248.34862    77.104551    89.033358    81.351231    1791.0732 
   67200   -1792200.7    36790.773    35776.505   -74293.382    52.353603    130.97972    183.57424    77.104551    89.033358    81.351231    1798.7311 
   67300   -1792227.2    35442.359    36386.089   -74067.696   -301.55313    647.96243    572.41015    77.104551    89.033358    81.351231    1798.2598 
   67400     -1792154    37475.686    36444.667   -73988.629    670.24621   -587.14878   -135.61037    77.104551    89.033358    81.351231    1804.6301 
   67500   -1792187.7    36411.297    36728.011   -72865.704    -807.6871   -660.28625    178.82542    77.104551    89.033358    81.351231    1802.5609 
   67600   -1792164.4    37801.549    37067.696   -73504.356   -68.715056    326.40865   -598.66007    77.104551    89.033358    81.351231    1807.6567 
   67700   -1792175.2    36577.273    36265.724   -73848.598   -732.89419     280.3274    70.488107    77.104551    89.033358    81.351231    1796.2801 
   67800     -1792212    36694.629    35791.044   -73463.785    413.23387    134.21573   -277.45166    77.104551    89.033358    81.351231    1800.8696 
   67900   -1792174.3    35623.831    36583.982   -73561.051   -38.211987   -305.85616    -1040.007    77.104551    89.033358    81.351231    1795.4692 
   68000   -1792171.2    36161.893    37268.592   -72775.022   -958.27574    741.76766   -574.05045    77.104551    89.033358    81.351231    1802.6444 
   68100   -1792118.6    36963.081    36752.452   -71818.611   -746.73267    521.77401    64.435293    77.104551    89.033358    81.351231    1800.4956 
   68200   -1792179.2     36332.46    36373.752   -72603.673    128.98248    258.83532   -39.601989    77.104551    89.033358    81.351231    1795.9752 
   68300   -1792138.8    35586.375    36311.763   -73280.101    341.35808    84.138599    297.57903    77.104551    89.033358    81.351231    1801.6782 
   68400   -1792204.5    36570.505     35700.81    -73110.84   -492.01503   -652.27027   -789.90972    77.104551    89.033358    81.351231    1791.2169 
   68500   -1792113.7    36877.397    36578.982   -71603.282   -47.671185    21.964438    64.843937    77.104551    89.033358    81.351231    1806.9863 
   68600   -1792157.2    36274.643    35406.995   -72627.876    916.03482    174.65448   -255.23176    77.104551    89.033358    81.351231    1800.1314 
   68700   -1792226.8     36017.55     36114.41   -73213.939     112.4912    422.11799      16.7197    77.104551    89.033358    81.351231    1802.4019 
   68800   -1792167.2    36885.217    36447.425   -72687.767   -537.69995   -669.85913   -232.75214    77.104551    89.033358    81.351231    1801.2845 
   68900   -1792243.9    36694.395    35528.376   -73782.178    442.84934    476.40334    151.01725    77.104551    89.033358    81.351231     1799.312 
   69000   -1792270.5    37089.752    35531.298   -74483.734    481.20698   -211.45911     247.0988    77.104551    89.033358    81.351231    1802.9732 
   69100   -1792146.4    36166.033    36146.524   -73745.586   -961.96854    42.951445   -628.84526    77.104551    89.033358    81.351231    1788.4088 
   69200   -1792153.2    35996.569    36115.673   -72730.376   -1050.7276    29.041055    -728.1285    77.104551    89.033358    81.351231    1798.4904 
   69300   -1792165.2    36973.247    36035.696   -73456.508    204.75471   -790.33872   -808.53907    77.104551    89.033358    81.351231    1797.1974 
   69400   -1792143.1    37081.887    36648.079   -73407.816   -131.49795   -575.54028   -419.75006    77.104551    89.033358    81.351231    1801.7306 
   69500   -1792233.6    36869.319    35311.211   -72897.143   -245.38993   -101.70935   -480.01719    77.104551    89.033358    81.351231    1799.7519 
   69600   -1792203.7    36402.376     35176.09   -73549.598    96.381433   -860.89165    630.95736    77.104551    89.033358    81.351231    1804.7479 
   69700   -1792211.6    36192.897    36128.698   -73405.321   -471.26029    -979.8332    22.039975    77.104551    89.033358    81.351231    1787.7425 
   69800   -1792153.8    37757.084    36332.469   -73372.259   -347.37816   -845.30469   -552.41205    77.104551    89.033358    81.351231    1799.6432 
   69900   -1792159.7    37763.943    36704.533   -72695.145   -82.896245    106.38633    148.98678    77.104551    89.033358    81.351231    1804.5628 
   70000   -1792182.8    37212.493    36379.956   -72603.581    360.01299   -569.54985    -72.28179    77.104551    89.033358    81.351231    1804.0344 
   70100   -1792181.7    37243.953    37515.971   -73461.399    193.31721   -272.99232    966.72082    77.104551    89.033358    81.351231    1802.0332 
   70200   -1792155.8    36959.865    37424.555   -72877.814   -180.19681   -151.23221     211.2349    77.104551    89.033358    81.351231    1798.5597 
   70300   -1792229.1    37137.185    36643.548   -73590.615   -582.00084   -20.579176    379.70688    77.104551    89.033358    81.351231    1795.6779 
   70400   -1792092.6    37318.027    37038.005   -73500.397     381.7099    243.02815   -234.84691    77.104551    89.033358    81.351231    1799.4909 
   70500   -1792161.8    36796.112    36655.628   -73314.266    273.44217   -477.43155    183.09089    77.104551    89.033358    81.351231    1795.8829 
   70600   -1792128.7    37410.068     36326.42   -73795.395   -146.25142    309.03474    354.94154    77.104551    89.033358    81.351231    1802.5579 
   70700   -1792241.4    36725.101    35482.018   -73292.918    -392.9524    -70.46133   -214.54019    77.104551    89.033358    81.351231    1805.1191 
   70800   -1792167.7    36975.319    37117.719   -73009.529   -381.99062    252.08914   -16.085432    77.104551    89.033358    81.351231    1808.7074 
   70900   -1792162.9    36874.824    36537.253   -73371.682    35.840641   -413.69438     261.1352    77.104551    89.033358    81.351231       1798.3 
   71000     -1792147    36839.078    36107.902   -71967.779   -684.95502    30.073787    195.73673    77.104551    89.033358    81.351231    1802.0509 
   71100   -1792207.4    36613.298    35842.698   -71458.696   -441.34474   -271.76558   -69.019569    77.104551    89.033358    81.351231    1797.3824 
   71200   -1792216.9    35820.955    35346.935   -71723.894    273.69411   -50.980692    361.67658    77.104551    89.033358    81.351231    1798.6479 
   71300   -1792183.1    37367.738    35704.215   -72375.341    600.25034   -559.64064    284.30263    77.104551    89.033358    81.351231    1799.6859 
   71400   -1792242.9    37289.928    35375.558   -73148.857    -581.5081   -611.31637   -149.17642    77.104551    89.033358    81.351231    1810.5929 
   71500   -1792227.8    36536.866    36730.959   -72910.098    244.42419   -229.54363    90.927345    77.104551    89.033358    81.351231    1806.0852 
   71600   -1792230.7    36301.321    36957.841   -73553.788    156.78836    193.54225   -297.86497    77.104551    89.033358    81.351231    1795.0922 
   71700   -1792134.5    37080.961    37623.804   -73866.878   -732.17636    314.10161   -337.34933    77.104551    89.033358    81.351231    1800.5794 
   71800   -1792244.4    36356.991    36496.058   -74457.259   -208.99584    143.09856   -3.9139605    77.104551    89.033358    81.351231    1799.1043 
   71900     -1792252    35876.822    36432.008   -74094.838    208.01717    -669.8441   -801.26256    77.104551    89.033358    81.351231    1800.3636 
   72000     -1792074    36800.956     37257.94   -72790.651    6.6837109    275.11649   -1184.8447    77.104551    89.033358    81.351231    1796.9974 
   72100   -1792150.8    36645.576    36207.596   -73288.007   -847.39347    123.88811   -585.92608    77.104551    89.033358    81.351231    1789.7512 
   72200   -1792222.1    36607.558    35974.818   -72607.596   -265.75399    66.644433   -908.08394    77.104551    89.033358    81.351231    1815.3974 
   72300     -1792162    36145.873    37531.497   -71998.192   -526.33989    114.24913   -510.82082    77.104551    89.033358    81.351231    1801.6146 
   72400   -1792230.4     36235.83    36484.629   -72782.263   -573.37483   -263.19748   -393.14068    77.104551    89.033358    81.351231    1798.3764 
   72500   -1792266.2    35850.733     35850.31   -72532.762    237.98854    350.84335    -350.3533    77.104551    89.033358    81.351231    1795.4483 
   72600   -1792167.1    36731.274    36007.264   -72914.568    482.67217     251.3901    391.07628    77.104551    89.033358    81.351231    1809.5161 
   72700   -1792182.4    36345.132    35987.046   -72450.054   -445.27706    538.98489   -694.80786    77.104551    89.033358    81.351231    1803.2776 
   72800   -1792169.8    36546.943    35584.704   -72423.395   -320.65555    210.21196   -434.78195    77.104551    89.033358    81.351231    1806.1129 
   72900   -1792173.9    36044.091    36526.336   -72306.236     103.5335   -157.67374    400.82663    77.104551    89.033358    81.351231    1791.0048 
   73000   -1792179.3    36491.639    36459.307   -73406.581   -324.41215    280.97989   -47.778629    77.104551    89.033358    81.351231    1803.1154 
   73100   -1792247.7    36482.686    36924.201   -73341.726   -368.21933    860.01335   -339.12757    77.104551    89.033358    81.351231    1794.9073 
   73200   -1792138.8    36544.321    36986.327   -73701.083    113.49485   -317.96131   -275.12334    77.104551    89.033358    81.351231    1793.7948 
   73300   -1792263.5    37178.902    35808.104   -73956.651   -1058.3725    303.20303   -770.03316    77.104551    89.033358    81.351231    1799.4924 
   73400   -1792136.1    36138.228    37381.035   -73780.482   -217.52624     115.8137   -1020.3392    77.104551    89.033358    81.351231    1800.0723 
   73500   -1792186.2    36968.144    37252.833   -73805.975   -126.58402   -306.06251   -309.45195    77.104551    89.033358    81.351231     1806.265 
   73600   -1792181.9    37195.155    36904.548   -72798.466    -548.2762    204.39047   -1070.6949    77.104551    89.033358    81.351231    1805.3912 
   73700   -1792128.2    37136.355     37139.28   -73424.622   -110.95418    227.57731   -178.62325    77.104551    89.033358    81.351231     1797.536 
   73800   -1792194.3    36187.707    36786.643   -72447.729    509.39738     319.6044   -102.80982    77.104551    89.033358    81.351231    1804.6167 
   73900     -1792138    36198.852    36875.046    -72692.63   -223.62063    221.82811   -197.45495    77.104551    89.033358    81.351231    1802.1955 
   74000   -1792200.5    36592.813    37574.081   -72442.447   -93.501841   -201.67298    235.50737    77.104551    89.033358    81.351231    1791.5155 
   74100   -1792228.2    36527.783    36093.573   -73611.123   -314.04763    6.6412821   -63.011064    77.104551    89.033358    81.351231    1802.7343 
   74200   -1792213.8    35302.478    36419.328    -73390.12   -79.573774   -85.365148    377.31935    77.104551    89.033358    81.351231    1803.5954 
   74300   -1792099.9    36178.638    36854.498   -73097.719    378.34688   -47.116953   -146.84339    77.104551    89.033358    81.351231    1796.8858 
   74400   -1792211.8    37314.529    36215.059   -72824.843   -108.73694    465.59963     401.3748    77.104551    89.033358    81.351231    1808.5664 
   74500   -1792153.5    37532.513    36066.205   -72110.693    170.89448     216.8608    238.59867    77.104551    89.033358    81.351231    1801.2706 
   74600   -1792215.5    37214.265    36202.929   -71574.359   -699.94557   -102.91594    -501.7397    77.104551    89.033358    81.351231    1812.8288 
   74700   -1792223.7    36245.682    36479.193   -72748.532   -312.88997    495.19837   -293.79828    77.104551    89.033358    81.351231    1799.7085 
   74800   -1792256.2     35493.78    36356.315   -72623.398    325.87077    83.235838    276.62882    77.104551    89.033358    81.351231    1790.8136 
   74900   -1792179.8    36897.928     36039.98    -72602.48    324.32137     97.52877    49.188617    77.104551    89.033358    81.351231    1787.6996 
   75000   -1792288.1    35390.956    36625.792   -73111.259    826.99593    358.13355    -139.8569    77.104551    89.033358    81.351231    1801.1141 
   75100   -1792130.4    36140.992    35923.698   -71994.517    404.32261   -483.97058    160.16442    77.104551    89.033358    81.351231    1797.0085 
   75200   -1792139.6    37010.763    35711.748   -71688.197   -80.875208   -963.73415    548.96358    77.104551    89.033358    81.351231    1793.1596 
   75300   -1792214.5    36282.102    35618.513   -72051.713    320.60377   -1401.3894    701.04276    77.104551    89.033358    81.351231    1797.0755 
   75400   -1792236.8    36647.301    35561.381   -72767.896    921.02319   -566.44835   -256.99996    77.104551    89.033358    81.351231    1796.9782 
   75500   -1792202.8    36959.523    35815.835   -73165.176   -59.919383    152.57219   -124.18451    77.104551    89.033358    81.351231    1801.2076 
   75600   -1792190.4    37300.913    35576.617   -72857.236   -324.15514   -463.95861   -317.27441    77.104551    89.033358    81.351231    1806.7708 
   75700   -1792225.2    35768.458    36974.893   -72378.655   -172.32461     40.65858   -591.61702    77.104551    89.033358    81.351231    1809.7872 
   75800   -1792200.5    36303.032    36114.846   -72853.126    61.146169    38.791983    646.48399    77.104551    89.033358    81.351231    1805.1566 
   75900   -1792115.4    37137.238    37027.427   -72249.502    6.4490858      83.2831    665.60183    77.104551    89.033358    81.351231    1815.9186 
   76000   -1792237.6    36524.432    35786.116   -73362.569    228.82596    788.52707    46.886598    77.104551    89.033358    81.351231    1797.3448 
   76100   -1792199.6    36503.296    36548.201   -73046.215    217.43776   -227.85382    431.79109    77.104551    89.033358    81.351231    1806.1773 
   76200     -1792181    36058.022    37343.063   -73104.091    387.13277     1080.613    919.03889    77.104551    89.033358    81.351231    1800.6663 
   76300   -1792235.5    37178.109    37947.049   -73673.568    839.98503    87.035019    328.32393    77.104551    89.033358    81.351231    1798.7368 
   76400   -1792206.1    37126.719    37157.742   -73770.414    550.18663   -196.80453   -209.84965    77.104551    89.033358    81.351231    1808.5627 
   76500   -1792248.1    36587.102    36150.609   -73807.584   -335.30153    -18.57307    33.339252    77.104551    89.033358    81.351231    1799.7975 
   76600   -1792235.7    37310.738    35422.144   -74163.273    406.19056   -1105.5829    880.54774    77.104551    89.033358    81.351231     1796.915 
   76700     -1792213    36466.157    37118.497   -72992.655   -176.41473    145.72869    978.29888    77.104551    89.033358    81.351231    1800.4665 
   76800   -1792187.6    37073.207    37053.248   -73749.395    572.09487    117.59651    147.56728    77.104551    89.033358    81.351231    1796.4084 
   76900   -1792170.7    36519.787    37387.868   -73541.867    59.176804   -145.45602   -254.55229    77.104551    89.033358    81.351231     1803.631 
   77000   -1792251.1    36547.583    35505.531   -73511.443     144.5556   -440.88444   -290.06627    77.104551    89.033358    81.351231    1788.1547 
   77100   -1792139.5     36584.04    36766.356   -73101.825   -473.18421   -557.19378   -730.71887    77.104551    89.033358    81.351231    1797.4051 
   77200   -1792149.6    36534.631    37019.014   -72981.959    215.91691   -124.97733     -165.115    77.104551    89.033358    81.351231    1796.7587 
   77300     -1792132    37193.762    37124.974   -72885.921    -64.24454   -55.517074    -286.8545    77.104551    89.033358    81.351231    1800.3002 
   77400   -1792166.7    38338.788    35708.824    -72921.05   -601.28267   -844.22108   -668.20396    77.104551    89.033358    81.351231    1806.0818 
   77500     -1792191    35815.057    36517.104    -73732.17    20.030184    114.59272   -246.86015    77.104551    89.033358    81.351231    1798.8261 
   77600   -1792208.8    37278.531    36300.749   -73462.151   -128.06291    263.65576   -569.21308    77.104551    89.033358    81.351231    1800.4822 
   77700   -1792140.9    36904.495    37212.602   -72349.303    28.043044    48.811774   -187.06875    77.104551    89.033358    81.351231    1801.2153 
   77800   -1792167.7    37015.513    36879.034   -72382.395    329.58201    -130.7138   -88.787472    77.104551    89.033358    81.351231    1798.9922 
   77900   -1792187.1    37083.641    36436.249   -73736.915   -500.86057   -170.64002   -777.12993    77.104551    89.033358    81.351231      1802.65 
   78000     -1792078    37559.751    36856.661   -71810.623    5.7669372   -207.04449    580.46044    77.104551    89.033358    81.351231    1803.3007 
   78100   -1792169.6    37046.698    36449.888   -73059.912    399.44184   -1155.6798   -838.22602    77.104551    89.033358    81.351231    1801.7138 
   78200   -1792171.6    37626.623    37106.322   -72775.858   -143.07871   -243.67339   -47.605884    77.104551    89.033358    81.351231      1794.92 
   78300   -1792195.7    36697.937    36734.105   -73064.702   -1158.0718    13.234304   -509.43097    77.104551    89.033358    81.351231    1797.1399 
   78400   -1792225.7      35642.3    36161.717   -73522.224   -64.370402    -724.0375   -633.95794    77.104551    89.033358    81.351231    1807.3743 
   78500   -1792142.4    37442.205    37101.438   -72567.389    761.51705   -343.08418   -189.69814    77.104551    89.033358    81.351231    1799.1319 
   78600   -1792157.4    37810.545    36642.767   -73538.536   -120.33678   -478.50446   -821.75917    77.104551    89.033358    81.351231    1795.4036 
   78700   -1792170.7    37066.358    36651.534   -72955.969   -1079.9811    -182.4245   -511.68086    77.104551    89.033358    81.351231    1798.1895 
   78800   -1792214.1    36540.582    36124.271   -74265.635    419.97658    179.78362   -244.75948    77.104551    89.033358    81.351231    1799.6976 
   78900   -1792240.7    36148.561    36919.504   -73675.018    866.06359   -155.12607    347.21057    77.104551    89.033358    81.351231    1800.5164 
   79000   -1792147.1    37381.361    37603.684   -72335.354   -87.737908   -580.88782   -170.48337    77.104551    89.033358    81.351231    1805.4714 
   79100   -1792289.3    36081.721    36877.682   -73194.124   -472.96554   -866.41177     -85.9361    77.104551    89.033358    81.351231     1797.029 
   79200   -1792155.9    36915.184    36320.971   -72786.944   -256.36956   -292.83418   -65.774898    77.104551    89.033358    81.351231    1786.7955 
   79300   -1792252.6    36606.826    36537.047   -73206.501    36.515653    510.57513   -260.81566    77.104551    89.033358    81.351231    1803.6007 
   79400     -1792238    36564.227    35994.566   -73954.447    436.96679   -16.977113   -129.00907    77.104551    89.033358    81.351231    1797.4916 
   79500   -1792212.1    35967.555    35925.021   -73721.962    102.44307    75.860113    407.34242    77.104551    89.033358    81.351231    1796.4359 
   79600   -1792155.2    36880.875    36295.918   -73531.941    862.11609    219.30587   -78.025302    77.104551    89.033358    81.351231    1806.1159 
   79700   -1792169.2    36410.812    37689.986   -73520.914    370.55842    388.88559    271.95634    77.104551    89.033358    81.351231    1792.0646 
   79800   -1792198.3    34986.145    37178.316   -74030.325   -498.10766    274.51079   -523.48385    77.104551    89.033358    81.351231    1792.6655 
   79900   -1792170.2    37856.317    36127.439   -73036.885   -514.83702   -380.94694   -131.71487    77.104551    89.033358    81.351231    1797.4131 
   80000   -1792186.2    36396.635    37173.663    -73757.43    495.65502    735.19698   -638.98125    77.104551    89.033358    81.351231    1798.2049 
   80100   -1792192.8    35526.221    37066.584   -72560.534    99.162802    305.55375    516.72487    77.104551    89.033358    81.351231    1802.3422 
   80200   -1792145.7    36401.774     36819.43   -73339.194   -739.05835    136.70763   -632.64107    77.104551    89.033358    81.351231    1804.6124 
   80300   -1792156.6    36793.833    36469.705   -72881.778   -630.05874   -577.59072   -262.74508    77.104551    89.033358    81.351231    1793.6945 
   80400   -1792074.2    36013.271    37502.249   -73318.508   -140.26124   -118.26698    348.24835    77.104551    89.033358    81.351231    1797.4695 
   80500   -1792158.9    36739.857    37807.548   -73472.323     169.2747    758.40361   -137.18977    77.104551    89.033358    81.351231    1803.9952 
   80600   -1792149.5    36797.103    36611.872   -72799.131   -224.40015      77.9061   -790.15237    77.104551    89.033358    81.351231    1793.6913 
   80700   -1792159.2    36871.124     36820.72   -73706.033   -297.27077    286.68928   -116.11026    77.104551    89.033358    81.351231    1796.5062 
   80800     -1792167    36515.345    37475.914   -73008.852   -301.16922     1033.696   -65.778297    77.104551    89.033358    81.351231    1807.1527 
   80900   -1792241.6    35498.901    36994.743   -73262.193   -285.33144   -57.330954   -515.80733    77.104551    89.033358    81.351231    1800.3632 
   81000     -1792292     36448.41     36094.95   -73659.428   -183.96377   -205.02687   -400.59095    77.104551    89.033358    81.351231    1796.0332 
   81100   -1792155.1    35915.207    37141.687   -72742.903    -27.60876    331.58067   -211.41625    77.104551    89.033358    81.351231    1791.5118 
   81200   -1792182.6    35836.377    36958.568   -73787.603    65.065766    360.57878   -227.06325    77.104551    89.033358    81.351231    1797.1947 
   81300   -1792193.1    38115.774    35777.218   -73424.828   -772.95581   -558.43678    246.84152    77.104551    89.033358    81.351231    1805.4703 
   81400   -1792120.9    36918.161    37098.286   -73451.935    198.45435   -172.85184    293.66632    77.104551    89.033358    81.351231    1794.0991 
   81500   -1792166.8    37270.483    37528.222   -73798.087    654.40712    5.3833872    819.85937    77.104551    89.033358    81.351231    1797.0082 
   81600   -1792226.8    36611.584    36401.393   -73618.891    553.49714   -341.17264    371.15275    77.104551    89.033358    81.351231    1805.9931 
   81700   -1792192.4    36845.835    35756.796   -73283.776    922.06445   -674.45195    12.426431    77.104551    89.033358    81.351231    1804.8476 
   81800   -1792140.4    36571.227    37775.046   -73321.268    497.29804    127.21922     637.2638    77.104551    89.033358    81.351231    1798.1746 
   81900   -1792272.3    36267.361    36941.858   -73371.254    901.62958   -74.415677    275.68826    77.104551    89.033358    81.351231    1800.6569 
   82000   -1792206.4    37385.632     35124.32   -74528.292    275.33274   -368.34419    178.90694    77.104551    89.033358    81.351231    1804.7233 
   82100   -1792143.7    36957.782    37162.334   -73046.404    343.33566   -744.52171    1229.3349    77.104551    89.033358    81.351231    1795.0729 
   82200   -1792236.1    35798.534    36133.923   -74284.166    1540.7318   -226.79619     1091.825    77.104551    89.033358    81.351231    1785.0064 
   82300   -1792216.3    36375.039    37426.544   -73383.128    520.22009    569.98306    630.63954    77.104551    89.033358    81.351231    1809.9194 
   82400   -1792245.8    36631.867    36337.648   -73713.676    1.6448352   -422.59883    570.92032    77.104551    89.033358    81.351231    1800.6907 
   82500   -1792161.8     35705.74    37098.829   -73096.965    192.36041    467.27013     220.0133    77.104551    89.033358    81.351231    1793.8501 
   82600     -1792148    36327.177    36900.214   -72211.772    639.18635     477.4531    87.327973    77.104551    89.033358    81.351231    1802.0012 
   82700   -1792223.8    36227.006    36780.318   -72728.076    94.380774   -493.15624    254.30695    77.104551    89.033358    81.351231    1792.0144 
   82800   -1792245.2    36593.259    35877.654    -73661.93    218.97654   -246.46018   -213.16558    77.104551    89.033358    81.351231    1805.0026 
   82900   -1792155.4     37726.97    36951.834   -72660.198   -89.975077    124.47188    -145.3767    77.104551    89.033358    81.351231    1805.5665 
   83000   -1792114.7    36706.233     37364.95   -72557.076    37.331693    69.124442   -127.15823    77.104551    89.033358    81.351231    1803.8515 
   83100     -1792171    37383.365    37098.587    -73531.42    711.58942    45.240577   -164.61125    77.104551    89.033358    81.351231    1794.4845 
   83200   -1792293.2    35494.316    35937.551   -74169.878    301.87879   -476.98581    -162.5882    77.104551    89.033358    81.351231    1794.1276 
   83300   -1792186.7    36098.875    36728.501   -72454.462    778.63329   -87.553405    44.095911    77.104551    89.033358    81.351231    1798.3593 
   83400   -1792221.1    36297.936    35041.569   -74020.908    97.793127    -38.18903    423.00576    77.104551    89.033358    81.351231    1793.1631 
   83500   -1792174.2    35906.965    36925.768   -73355.246    682.09997    236.27223    663.94554    77.104551    89.033358    81.351231    1799.9389 
   83600   -1792190.4    36543.552    36339.738   -73736.315    83.242901    34.005591    275.13544    77.104551    89.033358    81.351231    1796.9285 
   83700     -1792176    36127.916    37055.053   -74050.097    465.98992    601.13388   -459.52721    77.104551    89.033358    81.351231    1798.8331 
   83800     -1792204    36463.659    36832.512   -73403.131    53.424987    816.16415     385.6534    77.104551    89.033358    81.351231    1795.3659 
   83900   -1792204.9     36697.88    36303.205   -73756.339   -436.00912    256.57892   -474.58041    77.104551    89.033358    81.351231    1800.8137 
   84000   -1792216.9    35759.833    36064.735   -74638.971    152.98707    827.35221     180.0584    77.104551    89.033358    81.351231    1804.4419 
   84100   -1792212.2    35551.493    36598.763   -74057.491   -26.405257    363.71984   -68.471006    77.104551    89.033358    81.351231    1797.5131 
   84200     -1792267    34701.243    35995.955   -73880.986   -58.897178    357.51799   -131.80364    77.104551    89.033358    81.351231    1805.0896 
   84300   -1792210.8     35997.47    37448.093   -73338.933    61.851545    714.26492    663.01652    77.104551    89.033358    81.351231    1801.6113 
   84400   -1792131.7    36479.697    37556.499   -73194.909   -257.80478   -218.47222   -995.61473    77.104551    89.033358    81.351231    1805.0592 
   84500     -1792178    36281.639     37187.71   -72503.991   -184.26789    39.157013    3.2066652    77.104551    89.033358    81.351231    1807.2786 
   84600   -1792142.3    35866.929    36847.981   -72772.972    284.79161    825.41547    184.95519    77.104551    89.033358    81.351231    1795.6462 
   84700   -1792137.7    35575.847    37483.965   -72926.951   -308.67016    549.95019    -220.2748    77.104551    89.033358    81.351231    1792.0376 
   84800   -1792232.5    35766.713    35919.961   -72550.867    -769.3113    368.67799   -115.71154    77.104551    89.033358    81.351231    1802.2858 
   84900   -1792166.6    35605.917    36864.161   -72305.224    189.66336    177.01506    238.01395    77.104551    89.033358    81.351231    1792.0903 
   85000   -1792138.1    36388.656    36591.632   -72474.563   -228.54583    83.967978   -351.61163    77.104551    89.033358    81.351231    1799.5744 
   85100   -1792219.3    36217.691    37127.866   -72409.061   -171.55167    348.83204   -547.61974    77.104551    89.033358    81.351231    1803.5086 
   85200   -1792218.5    36528.324    37333.218    -72355.97   -346.16254   -306.30443   -205.51438    77.104551    89.033358    81.351231    1803.6442 
   85300   -1792309.9    36390.585    35909.711   -73493.703    219.22174    318.51786    592.08918    77.104551    89.033358    81.351231    1805.6559 
   85400   -1792210.4    35902.161    36374.661   -72107.819    345.83346   -163.90371   -186.49274    77.104551    89.033358    81.351231    1791.1297 
   85500   -1792192.4    36469.287    36019.171   -72816.066   -648.87577   -316.71569   -66.501749    77.104551    89.033358    81.351231    1813.0675 
   85600   -1792210.3    37161.904    36341.583   -73137.445   -87.473568   -168.73218    269.88183    77.104551    89.033358    81.351231    1799.3754 
   85700   -1792242.5    36819.999     35917.86   -72990.068     1029.994    54.272203    299.46237    77.104551    89.033358    81.351231    1808.5165 
   85800   -1792223.5    36431.308    35955.787    -73193.39   -404.37862    87.306494   -540.24648    77.104551    89.033358    81.351231    1799.1695 
   85900   -1792176.1    37178.823      36176.2   -72942.431    437.20633    -181.6493   -109.68874    77.104551    89.033358    81.351231    1793.3539 
   86000   -1792099.6    37092.583    37709.752   -72976.049   -354.02799   -166.31207   -636.64289    77.104551    89.033358    81.351231    1810.4438 
   86100   -1792198.1    36201.226    37777.549   -73457.093    267.68359    313.83474   -230.43761    77.104551    89.033358    81.351231    1808.0193 
   86200     -1792199    36771.922    35883.174   -73230.675   -211.10301   -326.67977    29.311058    77.104551    89.033358    81.351231    1800.6925 
   86300   -1792214.3    37303.921    36119.321   -73516.301   -345.91712    506.44813    -680.2571    77.104551    89.033358    81.351231    1796.9585 
   86400   -1792249.5    36157.491    36142.337   -73577.798   -475.06641    439.30242   -300.04145    77.104551    89.033358    81.351231     1799.718 
   86500   -1792222.3    35998.586    36878.206   -73341.818   -671.54493   -297.98018   -658.25178    77.104551    89.033358    81.351231    1795.1042 
   86600   -1792194.8    37228.428    35743.814   -72483.403   -957.55627    237.82098   -557.10578    77.104551    89.033358    81.351231    1791.8608 
   86700   -1792165.4    36725.877    36899.147     -73348.1    176.50082    243.13835   -60.433269    77.104551    89.033358    81.351231    1787.5288 
   86800   -1792270.6    37079.311    36498.177   -73676.516   -1185.9515   -210.92158   -163.50288    77.104551    89.033358    81.351231    1810.5158 
   86900     -1792174    37170.429     36844.36   -73611.631    727.87037    444.04059    202.47136    77.104551    89.033358    81.351231    1803.0939 
   87000   -1792260.6    35632.515    36673.617   -73986.512    393.66741    782.02598   -280.22381    77.104551    89.033358    81.351231    1796.4463 
   87100   -1792195.7    36292.462    36955.708   -73495.074   -192.87471   -800.08817     121.8872    77.104551    89.033358    81.351231    1798.5802 
   87200   -1792229.6    36259.997    36349.127   -74135.314    508.17071   -143.61229   -267.59782    77.104551    89.033358    81.351231    1796.1035 
   87300   -1792129.3    37037.998    35997.534   -73586.297     707.8575   -264.94585   -192.52428    77.104551    89.033358    81.351231    1801.4173 
   87400   -1792221.2    34822.654    37095.916   -74074.391   -706.47684   -97.665116   -112.95194    77.104551    89.033358    81.351231    1794.1357 
   87500   -1792176.5    35648.315    35486.429   -73599.212   -239.13788    1068.9162   -326.60051    77.104551    89.033358    81.351231    1795.1139 
   87600   -1792119.5    36727.902    36422.271   -72244.598    504.95301   -381.93462    447.30457    77.104551    89.033358    81.351231    1804.3452 
   87700   -1792154.7    36830.803    36265.606    -72419.36    677.36693    219.38207    454.51903    77.104551    89.033358    81.351231    1797.5309 
   87800   -1792165.4     36209.45    37442.946   -73909.508   -402.25286    128.73682    72.551632    77.104551    89.033358    81.351231    1801.4045 
   87900     -1792189    36955.829    35914.239   -73028.485    637.82055    664.54686    687.83335    77.104551    89.033358    81.351231    1789.9574 
   88000   -1792247.1    36489.094    36947.672   -73417.832    596.37075    64.848897    692.93675    77.104551    89.033358    81.351231    1798.6163 
   88100   -1792207.6    36551.833     37098.11     -73462.6    291.82658    289.16345   -87.610908    77.104551    89.033358    81.351231    1797.0382 
   88200   -1792235.3    35916.338    37347.964   -72869.528    200.93944    575.84763   -814.02123    77.104551    89.033358    81.351231    1800.0578 
   88300   -1792120.3    36236.699    36921.246   -73032.203    712.78436    139.34864    297.08438    77.104551    89.033358    81.351231    1796.1525 
   88400   -1792187.2    36844.239    35945.732    -73341.89    125.94408   -20.001953    492.51107    77.104551    89.033358    81.351231    1798.7059 
   88500   -1792229.6    36244.317    35975.929    -72852.67    297.20709   -233.65936   -549.74743    77.104551    89.033358    81.351231    1810.2705 
   88600   -1792224.6    35539.621    35383.917   -73026.417   -95.615893    326.86948    17.105879    77.104551    89.033358    81.351231    1800.9341 
   88700   -1792192.7    36592.111    36940.993   -72073.852    55.253536    241.70511   -518.58817    77.104551    89.033358    81.351231    1805.6288 
   88800   -1792162.6    37703.481     36579.28   -72687.081    312.27133    258.15444    39.532734    77.104551    89.033358    81.351231    1801.9789 
   88900   -1792152.4    37637.541    35774.985   -73048.447    672.78024    219.68616   -169.52887    77.104551    89.033358    81.351231    1798.3858 
   89000   -1792235.7    36283.014    36849.664   -73441.588   -90.631406    503.85284   -7.1051475    77.104551    89.033358    81.351231    1796.5263 
   89100   -1792183.6    37106.038    36172.757   -72862.574   -69.898406    79.948783   -245.13882    77.104551    89.033358    81.351231    1802.2427 
   89200   -1792221.5    36242.864     36893.35   -73381.546    312.70161   -702.96168    364.54649    77.104551    89.033358    81.351231    1800.5477 
   89300   -1792205.4    36052.877    36855.093   -73463.792   -4.2301746   -485.16961     228.4979    77.104551    89.033358    81.351231    1795.5812 
   89400   -1792136.3    37108.456    36592.985   -72429.212    746.80703    254.11472     23.68502    77.104551    89.033358    81.351231    1798.6864 
   89500   -1792207.1    36208.857    35389.874   -73671.334    43.442505   -861.11638   -168.60893    77.104551    89.033358    81.351231    1795.7681 
   89600   -1792224.1    37185.861    36649.496   -73652.308   -48.682949   -548.56143    163.83296    77.104551    89.033358    81.351231    1800.3694 
   89700   -1792269.7    36760.539    36034.754   -73112.054    458.58979   -550.81792    525.78412    77.104551    89.033358    81.351231    1808.5202 
   89800   -1792139.3    37550.987    36221.338   -72105.407    207.82681   -1300.7469    330.49081    77.104551    89.033358    81.351231    1793.5569 
   89900     -1792203    36826.219    35772.665   -72762.293    264.31328   -207.01189    686.57918    77.104551    89.033358    81.351231     1802.899 
   90000   -1792257.9    36578.964    37143.596   -72356.257    701.60418      185.488    531.12029    77.104551    89.033358    81.351231    1802.5809 
   90100   -1792154.1    36197.212    36838.279   -72429.386     203.9389    195.41164   -142.71543    77.104551    89.033358    81.351231    1797.2233 
   90200     -1792085    37937.913    37221.659   -72792.973   -256.96591    540.95337    119.27153    77.104551    89.033358    81.351231    1806.3344 
   90300   -1792187.5    36351.314    37760.034   -72652.308    436.25765    173.89274    237.55044    77.104551    89.033358    81.351231    1802.5199 
   90400   -1792188.3    35841.368    37989.969    -73206.65     703.5247    866.03615     236.1428    77.104551    89.033358    81.351231    1808.5389 
   90500   -1792112.1    36533.043     37547.67   -73417.502    945.89769    595.43225    8.1698292    77.104551    89.033358    81.351231    1793.0713 
   90600   -1792159.9    36695.134    36931.485   -73577.255    127.73333     -120.583    475.20874    77.104551    89.033358    81.351231    1801.3673 
   90700   -1792183.8    36167.503     37464.09    -72941.73    226.20869    110.78679   -5.7647723    77.104551    89.033358    81.351231    1807.5864 
   90800   -1792197.3     35080.17    37597.094   -73828.977   -250.57445    1184.1095    36.401014    77.104551    89.033358    81.351231    1803.8133 
   90900     -1792168    37420.727    36603.512   -73157.855    497.49054   -503.84369    851.63359    77.104551    89.033358    81.351231    1803.0634 
   91000   -1792162.8    36757.532    36801.764   -72430.905    362.74503    -916.3773    172.12999    77.104551    89.033358    81.351231    1799.5513 
   91100   -1792239.8    36839.025     36584.12   -73472.293    800.75102   -334.66127    260.49592    77.104551    89.033358    81.351231    1804.4423 
   91200   -1792108.8    37162.807    36936.113   -72842.809    189.79356   -1014.5237    419.88749    77.104551    89.033358    81.351231    1801.2522 
   91300     -1792129    37267.443    36196.249   -72770.337    738.36226   -699.48685    207.55311    77.104551    89.033358    81.351231    1804.9015 
   91400   -1792198.5    37219.197     36397.69   -73185.697   -8.7973404   -1076.9955     572.6534    77.104551    89.033358    81.351231    1805.8184 
   91500   -1792312.2    35665.145    37207.896   -74194.157    300.40781    33.381983    313.13357    77.104551    89.033358    81.351231    1800.7241 
   91600   -1792206.7    36934.887    34593.525   -73211.945   -460.89945   -803.00884   -747.12949    77.104551    89.033358    81.351231    1803.1074 
   91700   -1792183.7    36505.815    37407.982   -72738.613   -486.66471   -110.24864   -407.73241    77.104551    89.033358    81.351231    1816.0272 
   91800   -1792199.4    36152.314     35235.91    -73293.72     805.3758   -457.60943    161.04686    77.104551    89.033358    81.351231    1796.4511 
   91900   -1792148.4    37240.553    35819.777   -72579.079    430.92323    181.79352   -458.58725    77.104551    89.033358    81.351231    1796.8022 
   92000   -1792236.8    35564.338     35028.27   -72469.691   -271.03354     434.0503    149.39773    77.104551    89.033358    81.351231    1802.9388 
   92100   -1792102.6    37074.175    37515.311   -71807.237   -433.24338    247.20087   -1014.6154    77.104551    89.033358    81.351231    1799.1169 
   92200   -1792152.7    36880.456     36045.93   -72996.124    646.76722   -302.63264    140.90479    77.104551    89.033358    81.351231    1810.3526 
   92300   -1792209.5    36579.714    36666.157   -72351.325    425.31447   -120.82293    443.30969    77.104551    89.033358    81.351231    1792.5446 
   92400   -1792187.1    36610.148    37148.794   -72879.457   -802.13123   -211.45355    489.48351    77.104551    89.033358    81.351231     1803.841 
   92500   -1792208.2    37767.241    35520.701   -73159.627    277.00735    261.54901    118.47914    77.104551    89.033358    81.351231     1799.734 
   92600   -1792246.4    35668.886    37023.041   -73050.935    1018.0529    514.35552    535.22506    77.104551    89.033358    81.351231    1801.6508 
   92700   -1792181.7    35671.074    37408.824   -72709.626   -157.96233    721.78361   -204.68034    77.104551    89.033358    81.351231    1811.9518 
   92800   -1792142.5    36369.311    37076.424   -73081.035   -445.75361    330.96685   -61.886473    77.104551    89.033358    81.351231    1802.9756 
   92900   -1792177.5    36807.805    36467.705   -74570.444    306.54417   -3.3530171    226.00534    77.104551    89.033358    81.351231    1800.3006 
   93000     -1792219    37025.536    36227.864   -73677.771   -176.50508    431.49371   -133.81901    77.104551    89.033358    81.351231    1805.2536 
   93100   -1792264.2    35941.191    36751.582   -73184.867   -236.38612    363.02733   -371.90863    77.104551    89.033358    81.351231     1801.306 
   93200   -1792197.8    37336.195    36500.916   -73406.171    1344.5575    76.034529   -1.7576286    77.104551    89.033358    81.351231     1802.072 
   93300   -1792092.1    36211.439    37241.267   -72644.839     89.08424    -3.435817    101.42222    77.104551    89.033358    81.351231    1801.6858 
   93400   -1792152.1    36575.165    36357.621   -72833.852   -490.71094   -273.09554   -286.17105    77.104551    89.033358    81.351231     1802.032 
   93500   -1792173.5    36304.051    37359.549   -73201.386    520.60829   -252.80089   -281.75095    77.104551    89.033358    81.351231    1798.5473 
   93600     -1792129    37026.504    36907.826   -73239.631    401.79527    256.96035    26.698454    77.104551    89.033358    81.351231     1799.846 
   93700   -1792209.2    36109.657    36177.128   -72682.062     282.6127     325.3699   -97.345783    77.104551    89.033358    81.351231    1808.1744 
   93800   -1792177.4    36650.305    37199.819   -73446.617   -151.72073    107.98573    48.679092    77.104551    89.033358    81.351231    1796.6344 
   93900   -1792160.8    36293.593    37355.551   -73367.883   -68.955396    238.84821    246.17109    77.104551    89.033358    81.351231    1807.7141 
   94000   -1792221.8    36405.307    36663.588   -74223.069    304.64456    228.29586    200.14804    77.104551    89.033358    81.351231    1806.0511 
   94100   -1792198.4     37203.05    35605.084    -73389.88   -66.188617   -82.161088   -817.27558    77.104551    89.033358    81.351231    1799.5786 
   94200   -1792185.7    36172.763    36698.183   -73055.158    227.85331    481.00595    285.35154    77.104551    89.033358    81.351231    1809.4059 
   94300   -1792148.9    35710.719    37829.847   -72228.703    506.14583    180.19977    507.53038    77.104551    89.033358    81.351231    1785.5741 
   94400   -1792077.6    37124.904    37122.906   -72553.355    282.80187    448.56343    326.01975    77.104551    89.033358    81.351231    1796.3117 
   94500   -1792161.6    37235.561    36621.706   -72176.853    921.30494     672.2384    211.96794    77.104551    89.033358    81.351231    1798.9219 
   94600   -1792103.2    36450.868    37530.145    -72499.92    1110.7033   -314.87924    -9.386223    77.104551    89.033358    81.351231    1804.7509 
   94700   -1792169.5    36964.917     35645.96    -73138.11    -69.15872    473.15929   -384.55834    77.104551    89.033358    81.351231    1806.1054 
   94800   -1792227.8    37408.376    35267.129   -73175.032    844.90837   -748.39369    429.02795    77.104551    89.033358    81.351231    1796.3252 
   94900   -1792178.5    37845.154    34738.926   -72863.135   -621.57199   -981.94675   -308.15831    77.104551    89.033358    81.351231    1807.0136 
   95000   -1792196.4    36621.435    36630.901   -72957.862   -948.60363   -314.86486   -307.45184    77.104551    89.033358    81.351231    1781.7331 
   95100   -1792211.6    36623.112    34732.749   -73207.889    64.180994    230.19874   -325.29897    77.104551    89.033358    81.351231    1797.5708 
   95200   -1792229.7    36440.994    35032.238   -73297.966   -315.97438   -242.02632   -519.74415    77.104551    89.033358    81.351231    1794.7586 
   95300   -1792212.9    36449.443    37730.956   -73538.786   -594.22222    114.52538   -261.77728    77.104551    89.033358    81.351231    1793.8941 
   95400   -1792228.7    36181.553    36237.661   -73080.703   -112.54853    259.49132   -708.44071    77.104551    89.033358    81.351231    1807.8661 
   95500   -1792226.9    36556.138     35965.66   -73269.789    155.44431    25.018245   -171.54839    77.104551    89.033358    81.351231    1803.2722 
   95600   -1792213.5    37461.546    36049.939   -72292.718    558.55543   -133.28206    71.131779    77.104551    89.033358    81.351231    1810.4177 
   95700   -1792123.3     36074.64    37025.516   -72700.278   -1093.3779    561.50854   -602.39225    77.104551    89.033358    81.351231    1801.3265 
   95800   -1792195.8    36958.029    35810.605   -72665.716     148.1881    248.31765    255.70734    77.104551    89.033358    81.351231    1802.9744 
   95900   -1792152.1    35541.809    36983.053   -73457.982    617.35204    691.71633    34.742771    77.104551    89.033358    81.351231    1792.6988 
   96000   -1792193.8    36848.216    36317.647   -72985.202    209.04605    418.13872   -384.72125    77.104551    89.033358    81.351231    1797.3508 
   96100   -1792174.6    36704.004    36592.644   -73502.144   -698.10857    706.17857   -680.33349    77.104551    89.033358    81.351231    1803.2787 
   96200   -1792164.5    36968.803    36938.359   -72712.554   -502.91332    146.61156    691.13203    77.104551    89.033358    81.351231    1799.8804 
   96300   -1792177.8    35809.942    36844.691   -73386.552    295.90845    808.02342    737.30093    77.104551    89.033358    81.351231    1792.7238 
   96400   -1792246.1    35839.658    36697.711   -73978.575   -18.712518    87.320286   -303.92935    77.104551    89.033358    81.351231    1796.4068 
   96500   -1792169.2    37313.978    36543.572   -72944.729   -227.77038    103.42106   -125.99061    77.104551    89.033358    81.351231    1794.4637 
   96600   -1792185.7    36126.331     36805.76   -73037.859    -39.52925    633.45813   -183.66735    77.104551    89.033358    81.351231    1800.3294 
   96700     -1792214    36509.439    36625.986   -72766.095    397.20192   -82.126516    831.87639    77.104551    89.033358    81.351231    1794.9519 
   96800   -1792224.2    36208.052    37309.272   -73631.572   -252.10764   -112.77256   -210.04859    77.104551    89.033358    81.351231    1799.4152 
   96900   -1792176.1    36242.912      36499.7   -73458.396    352.68407     318.6858     188.7116    77.104551    89.033358    81.351231    1808.8526 
   97000   -1792186.2    37032.893    36980.198   -73734.064     18.13579   -604.46842   -111.07492    77.104551    89.033358    81.351231    1791.9476 
   97100   -1792258.6    36405.871    36808.023   -73020.189   -45.900642   -70.237502    445.62995    77.104551    89.033358    81.351231    1803.9303 
   97200   -1792166.9    35903.879    36846.792   -73729.215   -803.13638    342.71124   -180.91384    77.104551    89.033358    81.351231    1800.1138 
   97300   -1792218.2    36088.627    36544.448   -73718.922   -669.55352    713.63807   -506.83815    77.104551    89.033358    81.351231    1800.0639 
   97400   -1792098.2    36905.364    37337.312   -73163.546   -424.13276   -225.22153   -393.12712    77.104551    89.033358    81.351231    1797.3661 
   97500   -1792194.6    36436.574    36720.857   -72543.065   -82.179061    151.63471   -410.16589    77.104551    89.033358    81.351231    1811.6012 
   97600     -1792135    36176.508    37808.413   -72354.344   -393.89329    261.90833   -253.11411    77.104551    89.033358    81.351231    1795.1623 
   97700     -1792187      35468.1     37266.23   -72953.179    165.62923    1103.1064   -285.98243    77.104551    89.033358    81.351231    1799.4576 
   97800   -1792233.7    36467.571    35894.526   -72981.031    8.1491424    44.836661   -1094.6428    77.104551    89.033358    81.351231    1809.7269 
   97900   -1792230.5    35910.113    36470.944   -72945.447   -284.56473   -368.47005   -200.27659    77.104551    89.033358    81.351231    1797.7232 
   98000   -1792231.2    36306.776    38394.561   -72266.726    465.41874    285.68629    518.20752    77.104551    89.033358    81.351231    1803.7251 
   98100   -1792215.3    35576.676    37274.546   -73642.407   -469.13636   -493.14981    130.72183    77.104551    89.033358    81.351231    1788.6322 
   98200   -1792252.3     35293.27    36618.974   -74332.496    9.2696313    345.97355    504.51875    77.104551    89.033358    81.351231    1785.6912 
   98300   -1792157.5    37393.938    37021.782   -72959.703    15.356498    72.330962    212.01624    77.104551    89.033358    81.351231    1810.3136 
   98400   -1792248.3    35952.768    36010.317   -74153.318   -62.130704    574.56053   -232.62005    77.104551    89.033358    81.351231    1793.8423 
   98500   -1792224.2    36265.211    37018.782   -73480.695      158.855   -28.535732   -759.49409    77.104551    89.033358    81.351231    1795.4211 
   98600   -1792164.3    35963.285    37081.517   -73198.959   -217.69946    576.43724   -830.84623    77.104551    89.033358    81.351231    1798.8344 
   98700   -1792244.8    36107.168    37007.177   -73366.749    -255.8282    1085.2004    16.613943    77.104551    89.033358    81.351231     1796.986 
   98800   -1792250.8    35380.381    36988.649   -73346.647   -64.437608    734.68595    126.53907    77.104551    89.033358    81.351231    1800.5154 
   98900   -1792128.7    35494.519    37324.886   -72194.414   -646.48076    1085.8911   -998.15139    77.104551    89.033358    81.351231    1799.9924 
   99000     -1792233    35756.158     37106.33     -72700.3    233.67931    430.47501   -629.58948    77.104551    89.033358    81.351231    1790.6839 
   99100   -1792213.6    36608.868    37381.123   -73213.929    267.63863    675.67924   -405.72959    77.104551    89.033358    81.351231    1808.0643 
   99200   -1792263.8    35292.307    36207.273   -73380.935    441.92518    677.41747    508.03202    77.104551    89.033358    81.351231    1795.6496 
   99300   -1792217.2    35382.004    37096.012    -73242.77   -223.52159    523.57971   -313.73837    77.104551    89.033358    81.351231    1802.3706 
   99400   -1792201.2    36376.181    37629.166   -73069.137   -468.05978    525.05618    201.90494    77.104551    89.033358    81.351231    1797.1667 
   99500   -1792262.7     35269.74    35899.114   -74402.533   -246.10004   -31.870158    265.24629    77.104551    89.033358    81.351231    1791.3749 
   99600   -1792210.8    35647.977    37344.762   -74130.573    130.99234     477.1175    33.985297    77.104551    89.033358    81.351231    1801.6362 
   99700   -1792219.2    35975.752    36277.334   -74481.446   -429.15604    688.23763   -231.05691    77.104551    89.033358    81.351231    1807.3955 
   99800   -1792220.9     36724.73    37017.399   -73814.062    324.96017   -103.78202   -12.433242    77.104551    89.033358    81.351231    1800.0672 
   99900   -1792182.4    35968.371        36883   -73748.107    91.362806   -305.82342     145.4958    77.104551    89.033358    81.351231    1804.1284 
  100000   -1792216.1    36893.962    37349.043   -73300.064    221.19768   -546.89694   -471.95415    77.104551    89.033358    81.351231     1806.577 
  100028   -1792135.6    35880.105    36178.532   -72497.307    701.25144    722.80654   -66.245815    77.104551    89.033358    81.351231    1802.0576 
Loop time of 6301.77 on 15 procs for 50000 steps with 58275 atoms

Pair  time (%) = 4320.5 (68.5601)
Kspce time (%) = 1716.56 (27.2393)
Neigh time (%) = 97.8551 (1.55282)
Comm  time (%) = 115.746 (1.83672)
Outpt time (%) = 1.11677 (0.0177215)
Other time (%) = 49.9977 (0.793391)

Nlocal:    3885 ave 3914 max 3826 min
Histogram: 1 2 0 0 0 0 3 3 2 4
Nghost:    18506.7 ave 18657 max 18378 min
Histogram: 3 3 0 0 0 4 2 0 1 2
Neighs:    1.48523e+06 ave 1.5296e+06 max 1.43369e+06 min
Histogram: 1 1 1 2 3 0 3 1 1 2

Total # of neighbors = 22278418
Ave neighs/atom = 382.298
Neighbor list builds = 1588
Dangerous builds = 0
unfix   2


write_data NPT_relaxed_1800.data
PPPM initialization ...
  G vector (1/distance) = 0.308879
  grid = 72 80 75
  stencil order = 5
  estimated absolute RMS force accuracy = 0.00178753
  estimated relative force accuracy = 0.000124137
  using double precision FFTs
  3d grid and FFT values/proc = 58144 28800

