
variable      mytemp equal  1400
# ------------------- Configuration ---------------------
read_data	CrO.dat
  orthogonal box = (0 0 0) to (77.301 89.2602 81.5585)
  1 by 5 by 3 MPI processor grid
  reading atoms ...
  58365 atoms

mass		1  15.9994
mass            2  51.9961

# -------------------- FORCE FIELDS ----------------------
pair_style buck/coul/long 10.0 10.0
pair_coeff    * * 1e-30 1e-30 0.0
pair_coeff    1 2 1204.18 0.3165   0.0
pair_coeff    1 1 9547.96 0.21916  32.0

kspace_style    pppm 0.0001



##-------------------- energy minimization ---------------

#compute   aE   all pe/atom
#min_style  fire

thermo          100
thermo_style    custom step pe pxx pyy pzz pxy pxz pyz lx ly lz temp

minimize      1e-8 1e-8 1000 1000
WARNING: Resetting reneighboring criteria during minimization (../min.cpp:168)
PPPM initialization ...
  G vector (1/distance) = 0.308705
  grid = 72 80 75
  stencil order = 5
  estimated absolute RMS force accuracy = 0.00180213
  estimated relative force accuracy = 0.000125151
  using double precision FFTs
  3d grid and FFT values/proc = 58144 28800
Memory usage per processor = 12.4992 Mbytes
Step PotEng Pxx Pyy Pzz Pxy Pxz Pyz Lx Ly Lz Temp 
       0   -1799682.3   -135067.89   -133757.49   -29466.109    6.1317072    39.388853    76.595173       77.301      89.2602      81.5585            0 
      83   -1808294.3   -84909.514   -84971.629   -185038.56    36.932996   -9.5850176   -38.636215       77.301      89.2602      81.5585            0 
Loop time of 29.0824 on 15 procs for 83 steps with 58365 atoms

Minimization stats:
  Stopping criterion = energy tolerance
  Energy initial, next-to-last, final = 
        -1799682.25738     -1808294.26063     -1808294.27869
  Force two-norm initial, final = 872.615 1.03103
  Force max component initial, final = 27.6423 0.162854
  Final line search alpha, max atom move = 0.0276424 0.00450168
  Iterations, force evaluations = 83 229

Pair  time (%) = 23.1831 (79.7152)
Kspce time (%) = 5.43119 (18.6752)
Neigh time (%) = 0.120396 (0.413981)
Comm  time (%) = 0.233568 (0.803122)
Outpt time (%) = 0 (0)
Other time (%) = 0.114163 (0.392549)

Nlocal:    3891 ave 3946 max 3786 min
Histogram: 3 0 0 1 0 1 2 1 0 7
Nghost:    18548.7 ave 18753 max 18329 min
Histogram: 6 0 0 0 0 0 1 3 2 3
Neighs:    1.46765e+06 ave 1.51863e+06 max 1.40517e+06 min
Histogram: 1 0 2 1 3 1 3 1 1 2

Total # of neighbors = 22014812
Ave neighs/atom = 377.192
Neighbor list builds = 2
Dangerous builds = 0

## --------------------- system relax --------------------
#dump          1 all xyz 100 xyz/all.xyz
#dump_modify   1 element O Cr

velocity      all create ${mytemp} 4928459 dist gaussian
velocity      all create 1400 4928459 dist gaussian
fix           1 all npt temp ${mytemp} ${mytemp} 0.1 iso 0.0 0.0 2
fix           1 all npt temp 1400 ${mytemp} 0.1 iso 0.0 0.0 2
fix           1 all npt temp 1400 1400 0.1 iso 0.0 0.0 2
run      50000
PPPM initialization ...
  G vector (1/distance) = 0.308705
  grid = 72 80 75
  stencil order = 5
  estimated absolute RMS force accuracy = 0.00180213
  estimated relative force accuracy = 0.000125151
  using double precision FFTs
  3d grid and FFT values/proc = 58144 28800
Memory usage per processor = 10.2492 Mbytes
Step PotEng Pxx Pyy Pzz Pxy Pxz Pyz Lx Ly Lz Temp 
      83   -1808294.3   -64811.643   -64913.689   -165054.04    71.636142    35.074917     58.52209       77.301      89.2602      81.5585         1400 
     100   -1801725.9     -35949.8   -35259.585   -137390.32   -60.879023    167.95992   -138.66215    77.288416    89.245669    81.545223    530.77686 
     200   -1802954.9   -6294.2945   -5994.0843   -111074.39   -408.50011   -54.752167   -325.54143    76.972773    88.881193    81.212195    736.86273 
     300   -1802779.7    24773.846    24697.016    -84466.83    -141.3236    386.83499   -79.165419    76.739929    88.612326    80.966527    805.73426 
     400   -1802570.5    42101.709    42654.793    -70416.59    828.17772    362.09225    171.09029    76.622455    88.476678    80.842583    895.73556 
     500   -1801920.5    47076.065    47393.345   -65662.087    253.39392    232.43765    646.52586    76.613703    88.466572    80.833349    939.60634 
     600   -1801483.5    43938.857    44381.965   -68388.918   -603.10078    372.59999    89.045899    76.667878    88.529128    80.890507    1019.1418 
     700   -1800836.1    39567.347    40016.185   -71792.147    326.64172    352.85886    597.35696    76.735228    88.606898    80.961567    1076.1442 
     800   -1800280.2    38591.597    38348.831   -73163.243    215.16287    47.579439    606.25205    76.784485    88.663775    81.013537    1147.4649 
     900   -1799709.4    38876.811    38240.153   -72345.015   -295.82548    503.76162   -133.42886    76.815999    88.700165    81.046787    1214.7887 
    1000   -1799194.2    38913.979    38970.208   -72537.421    37.602957     437.2756   -246.71474    76.841812    88.729971    81.074021    1282.3368 
    1100   -1798683.1    39273.503    39083.816   -73011.736     788.6298   -473.35136    107.94511    76.868967    88.761328    81.102672    1337.0706 
    1200     -1798338    38662.286    38645.518   -73770.894   -774.96326    10.623829   -382.48179    76.897817    88.794641    81.133111    1392.7904 
    1300   -1798057.1     38616.32    36318.789   -74925.012   -481.95534   -845.77338    386.74023    76.925036    88.826071    81.161829    1424.0626 
    1400   -1797955.6    35781.122    36000.873   -76202.465    869.06763    124.53468    308.34447    76.943361    88.847231    81.181163    1432.3056 
    1500   -1798011.2    35260.416    35533.053   -77233.639     395.0831    438.33512     121.1091    76.946236     88.85055    81.184197     1408.451 
    1600   -1798247.9      35073.8    35543.137   -77586.123    -796.1034   -74.739257   -48.435661    76.931977    88.834086    81.169153     1392.655 
    1700   -1798349.4    38041.779    37355.264   -74770.571    57.455654   -23.359988   -241.78268    76.909014     88.80757    81.144925    1381.3087 
    1800   -1798322.4    39472.772    39209.947    -73505.45   -46.341003    515.96169    -496.6053    76.894949    88.791329    81.130085     1390.397 
    1900   -1798203.1    39488.139    40573.414   -73183.697   -419.03457   -209.10602    -281.6696    76.899734    88.796854    81.135134    1408.7077 
    2000   -1798076.1    38821.471    37810.649   -74506.779    23.946835   -403.52955   -242.48242    76.919284    88.819429     81.15576    1417.2066 
    2100     -1798027     35716.09     36721.36   -76423.207    268.59102    364.21262    126.48561    76.937157    88.840067    81.174618    1408.8199 
    2200   -1798141.2    35636.768     35616.36   -76927.372   -421.44631    73.798525   -318.97461    76.938996     88.84219    81.176558    1399.6397 
    2300     -1798301    35737.299    35957.426   -76613.304    375.02812    -829.7765   -29.877826    76.925387    88.826476    81.162199    1396.9018 
    2400   -1798219.5    38718.101     38221.65    -75093.37   -350.64392    171.76857   -124.87164    76.907082    88.805339    81.142886    1381.7115 
    2500   -1798164.9    39341.699    39176.832   -73894.329   -84.540376    91.762859    70.280051    76.899634    88.796739    81.135028    1390.5642 
    2600   -1798160.6    39342.174    39875.205   -75226.025   -138.67491    90.018791   -30.620428    76.908081    88.806493     81.14394     1410.152 
    2700   -1798071.9    37520.605    37702.127   -75188.155    186.38644    500.77982    294.69194    76.925595    88.826716    81.162419    1405.7593 
    2800   -1798152.4    36338.868    35676.992   -77308.955    327.99285   -390.92046    321.85198    76.935775    88.838471     81.17316    1406.7316 
    2900   -1798171.4    35559.455    37071.227   -76438.864   -58.325369   -476.09766   -144.25846    76.929847    88.831626    81.166905    1393.2606 
    3000   -1798228.3    38173.903    37691.039   -75388.249   -336.22341   -74.734415    692.63856    76.914954    88.814429    81.151192     1392.076 
    3100   -1798196.9    39306.478    38873.812   -74007.008     794.0913   -396.17081    114.12606    76.904765    88.802664    81.140442    1392.5042 
    3200     -1798205    39343.885    38709.798   -74418.477     553.8258   -334.24595    199.21688    76.906199    88.804319    81.141954    1405.2399 
    3300   -1798133.9    38243.513    38467.856   -75468.903    -104.9707    112.60356    241.76785    76.917917     88.81785    81.154318    1404.7131 
    3400   -1798117.4    37653.958    36785.714   -76588.526      324.202   -363.16669   -229.88967     76.92913    88.830798    81.166149    1402.4052 
    3500   -1798160.5    37640.816    35482.573   -76794.478   -81.934781   -287.03544    14.737378    76.931224    88.833216    81.168358    1400.5383 
    3600   -1798224.4    37383.587    37119.389   -75793.846   -750.59042   -332.42159    317.67312    76.921973    88.822534    81.158597    1400.2813 
    3700     -1798224    39107.827    38000.017   -74481.853   -280.68364   -444.11342   -593.97376    76.911346    88.810263    81.147386    1397.4232 
    3800   -1798234.1    38626.891     38694.98   -73415.078   -308.70788    59.225781   -485.14047    76.908563     88.80705    81.144449     1403.597 
    3900     -1798164    37818.081    38466.779   -73940.321   -328.09486    54.512187   -145.45644    76.914559    88.813973    81.150775    1401.6239 
    4000     -1798133    36600.322    37665.961   -75403.514   -781.07643    315.00114   -817.54317     76.92388    88.824736    81.160609    1401.4102 
    4100     -1798147    36004.652    35922.265   -75959.032   -459.36102   -181.05787   -536.65515     76.92825    88.829782     81.16522    1401.6606 
    4200   -1798158.1    36692.129    36400.864    -75368.25   -396.69294   -155.95137   -549.09592     76.92474    88.825728    81.161516    1398.1956 
    4300   -1798191.3    37916.376    37514.003   -74846.241   -308.74894   -89.875931   -433.22142    76.916345    88.816035     81.15266    1397.5551 
    4400   -1798178.3    37680.494    38734.906   -73516.765   -131.03035     37.88118    138.85478    76.910881    88.809726    81.146895    1394.1246 
    4500   -1798190.4    38595.661    36891.062   -73766.608   -146.27449   -58.934453   -366.86926    76.911718    88.810692    81.147777    1398.7894 
    4600   -1798169.3    36363.165    37429.674   -75372.097   -202.09347    80.509731   -197.70656    76.917572    88.817452    81.153954    1401.4608 
    4700   -1798139.6     37136.01     36645.68   -75582.578   -178.85244   -315.59675  -0.22266997    76.922076    88.822653    81.158706    1399.7114 
    4800     -1798150    37907.505    37538.814   -74885.878   -388.90308    -341.5037   -304.00327    76.922276    88.822884    81.158917    1398.9673 
    4900   -1798153.8    37602.205     37121.98   -75057.412    309.58447   -675.22977   -412.47653    76.920019    88.820277    81.156536    1395.6067 
    5000   -1798181.3    37246.703    37702.976   -74746.863     473.6102    -128.5029    257.21698    76.917513    88.817383    81.153891    1396.5651 
    5100   -1798179.1    37574.696    37522.142   -74865.764   -337.62611   -481.19089    413.63475      76.9161    88.815752    81.152401    1397.4111 
    5200   -1798177.6    37982.695    37510.908   -75493.444     334.6044    331.06605   -394.93809    76.915887    88.815506    81.152176    1400.4508 
    5300   -1798195.8    36455.727    38243.316   -74344.653    -38.58494     862.8571    -632.4531     76.91738     88.81723    81.153751    1405.5283 
    5400   -1798207.2     37330.79     36397.75   -75165.578   -183.16662     172.8603    9.0109582    76.920204    88.820492    81.156731    1406.0875 
    5500   -1798181.9    37071.218    37105.613   -75698.508   -96.986107   -424.02968    -384.8668    76.921247    88.821695    81.157831    1399.7833 
    5600   -1798178.1    37354.386    37761.938   -75473.735   -201.11186    76.875591   -164.89313    76.918629    88.818673    81.155069    1397.0897 
    5700   -1798207.6    37835.387    37846.509    -75008.89    411.60533    289.80932    331.93703    76.915707    88.815299    81.151986    1401.7665 
    5800   -1798235.6     38721.53    37511.495     -74778.4   -456.84325   -456.02636    7.2926346    76.915686    88.815275    81.151965    1408.1099 
    5900   -1798167.6    38156.413    38115.743   -74889.944    374.59313    303.45094    107.35763    76.919031    88.819136    81.155493    1400.3535 
    6000   -1798149.9    37666.846    36470.661   -76282.164    61.541503   -214.91011   -11.463738    76.922009    88.822575    81.158635    1397.9955 
    6100   -1798212.5    37464.437    37267.963   -75342.967    72.737056    116.10972    41.817624    76.920485    88.820816    81.157028    1405.0094 
    6200   -1798173.8    38288.669    37360.518   -74568.349    421.21586   -628.38638   -26.666219    76.916896    88.816672    81.153241    1398.2703 
    6300   -1798219.3     38189.77     37383.45   -75102.872    741.30682    257.40814    268.09855    76.915435    88.814984    81.151699      1403.43 
    6400   -1798166.3    37273.451    38254.328   -74625.838   -153.18837    405.43646    180.54879    76.915919    88.815543     81.15221    1396.3307 
    6500   -1798134.5    36703.796    37479.922   -74250.027    541.13463   -159.29355    236.91295    76.918604    88.818643    81.155042    1393.0384 
    6600   -1798216.7     37179.15    36540.415   -75263.359    727.53521   -514.58304    1081.7035     76.92046    88.820787    81.157001    1406.1348 
    6700   -1798173.5    37738.693    37846.258   -74907.933     799.0273     515.8155    299.53947     76.91903    88.819135    81.155492    1401.2588 
    6800   -1798175.5    37386.127    37369.347   -74870.148    198.11319   -231.08873    249.67388    76.917821     88.81774    81.154217    1399.5527 
    6900   -1798175.2    37589.129    37392.199   -75081.558    183.89493    137.22848    510.78841    76.917593    88.817476    81.153976    1397.5855 
    7000     -1798209    37142.722    37333.839   -74866.023   -34.463325      469.698   -124.68281    76.918059    88.818014    81.154468    1401.6069 
    7100   -1798190.3    37216.088     38354.66   -74743.772   -513.46986    707.97473   -155.15725    76.918096    88.818057    81.154506    1399.7417 
    7200   -1798182.3     38203.04     36906.28   -75035.221    364.64986   -90.008453     137.6915    76.918879    88.818961    81.155333    1400.2874 
    7300     -1798196    37844.795    37084.721    -75302.36   -386.12159   -466.77478   -131.39902    76.919382    88.819542    81.155863    1403.1541 
    7400   -1798172.8    37235.792    37188.578   -74956.109   -716.50565   -490.76285    -330.4664     76.91945     88.81962    81.155935    1400.8681 
    7500   -1798193.9    37711.438    37022.899   -75315.358    1030.5946    139.92193   -9.9571088    76.918943    88.819035      81.1554    1402.0347 
    7600   -1798180.5    37652.553    37438.408   -75449.354    512.06358    206.69313   -442.13206    76.918135    88.818103    81.154548    1397.6458 
    7700   -1798241.3    38221.434    37622.629    -75330.12   -543.53934   -38.768812   -116.27385     76.91736    88.817208    81.153731    1404.7957 
    7800     -1798190    37614.252    37414.967   -74665.069    165.87834    359.72556   -528.50846    76.918586    88.818623    81.155024    1399.2504 
    7900   -1798183.8    37593.613    37237.036   -75222.677    336.80216   -539.51379   -261.11826     76.91945     88.81962    81.155935    1400.9747 
    8000   -1798145.1    37371.195     36915.18   -74481.897    409.26038   -399.48483    139.66169    76.919201    88.819333    81.155673    1396.9814 
    8100   -1798170.6    36907.033    37613.921   -74686.937   -312.00022    25.375302   -172.71859    76.918232    88.818214     81.15465    1399.6208 
    8200     -1798159    36883.718     38183.77   -73969.408    364.20126   -24.840937   -606.18561     76.91747    88.817334    81.153846    1396.1233 
    8300   -1798160.1    37127.278    36684.488   -74691.604     158.8038   -243.40189    164.25638    76.917603    88.817488    81.153986    1394.2272 
    8400   -1798195.8    37612.566    37271.019   -75042.808   -41.751954     23.77779   -132.87892    76.916624    88.816357    81.152954     1399.229 
    8500   -1798230.7    36969.668    38472.505   -75323.008    429.08487    38.986656    383.21338    76.915595     88.81517    81.151869    1405.2698 
    8600     -1798175    38311.495    36670.267   -74948.808    848.10566    121.42059    915.43783    76.916124    88.815781    81.152427    1399.2854 
    8700     -1798192    38058.359    37061.499   -75066.015   -188.73647   -361.75449   -833.61244     76.91736    88.817207     81.15373    1402.1394 
    8800   -1798152.1    37590.495     37517.52   -74676.654   -465.61279   -789.30391   -712.79965    76.919371    88.819529    81.155852    1396.3238 
    8900   -1798150.7    37526.487    36361.731   -75197.116    844.99928   -622.53679    180.04681    76.921118    88.821547    81.157695     1395.205 
    9000   -1798156.6    37803.057     35787.36   -74396.635    406.18811   -386.39476    522.33127    76.918805    88.818875    81.155255    1395.0307 
    9100   -1798174.8    37911.851    37163.373   -73475.913   -27.206976    93.752133   -103.00453    76.915136    88.814639    81.151384    1397.5407 
    9200   -1798169.1    37801.282     37539.88   -74181.603    257.95748    220.80895   -20.800402    76.914913    88.814382    81.151149    1397.7751 
    9300   -1798154.8    37807.613    37291.747   -74780.893    454.76635    208.65048   -24.975195    76.918198    88.818175    81.154615    1396.4721 
    9400     -1798157    38053.795    36420.869   -75164.676   -368.71836    8.9376044    109.70766    76.922104    88.822686    81.158736    1396.2934 
    9500     -1798201    37173.447     37707.93   -75365.947   -597.50287   -88.443021   -93.493877    76.922426    88.823056    81.159075    1401.7391 
    9600   -1798156.7    38003.099    36395.737   -75281.864    234.77442   -197.09811    238.53171    76.918556    88.818589    81.154993    1395.0261 
    9700   -1798209.3    38491.933    37317.872   -74062.715     48.42599   -221.92893   -182.56995    76.913781    88.813075    81.149955    1402.1524 
    9800   -1798253.2    36538.569    37672.788    -75677.14   -285.15992    419.15807   -25.414342    76.914446    88.813843    81.150656    1407.9923 
    9900   -1798158.7    37496.215     37054.94   -75090.042    405.37438   -463.86914     225.1798    76.917765    88.817675    81.154157    1395.3436 
   10000   -1798165.9    37535.274    37080.683    -75398.08   -41.248562    160.31177    704.30582    76.920514     88.82085    81.157058    1396.7365 
   10100     -1798218    36923.944    37259.868   -75608.211    283.95659    22.291209    522.47575    76.920196    88.820481    81.156722    1404.4578 
   10200   -1798168.3    37902.813    37485.053   -74848.203   -206.05436   -403.89512    220.38445    76.917799    88.817714    81.154193    1398.2164 
   10300     -1798187    37320.936    37200.447   -74609.006    518.39468   -376.69082    449.59419    76.916106     88.81576    81.152408    1400.0713 
   10400   -1798161.8    38345.857    37955.678   -74854.507   -134.02985   -509.09645   -707.97271    76.916205    88.815873    81.152511    1395.7457 
   10500   -1798214.6     38246.63    37343.661   -75096.125    -927.9269   -523.56172   -426.49426    76.918023    88.817973     81.15443    1401.9897 
   10600   -1798188.7    37301.625    37621.244    -74990.37   -6.0726921   -417.18408   -274.53091    76.920656    88.821013    81.157208    1398.5311 
   10700   -1798171.2    37728.244    36600.922   -75680.808   -189.13772   -764.98826   -50.334377     76.92123    88.821676    81.157813    1397.1734 
   10800   -1798253.9     36948.66     37593.91    -75620.15   -453.17121    99.795784   -103.51239    76.918621    88.818663    81.155061    1410.1468 
   10900     -1798206    38272.831    37060.446   -75810.291   -420.76256   -251.93045   -460.06892    76.916127    88.815783    81.152429     1404.369 
   11000     -1798185    37399.956    37326.598   -74794.586    333.37239   -21.839869    88.972767    76.916486    88.816198    81.152808    1399.7022 
   11100   -1798213.3    37849.856     37376.06   -75049.631   -257.88541   -214.49047   -274.19954    76.918435    88.818449    81.154865    1400.4035 
   11200   -1798194.3     37793.99    36949.555   -75088.897    254.94461   -74.488259     215.6788    76.921468    88.821951    81.158064    1397.3986 
   11300   -1798176.5    37086.138    36225.339   -75350.379   -23.585439    -41.67827   -98.527338    76.922434    88.823066    81.159084    1396.9863 
   11400   -1798125.4    37244.527    37469.573   -74633.588   -6.1452223    107.01212   -137.05082    76.919105    88.819223    81.155572     1392.899 
   11500   -1798197.8    38680.993     38664.87   -75109.765    129.26142   -335.64996    447.98287    76.914197    88.813555    81.150393    1403.7888 
   11600   -1798146.2    38499.492    38079.141    -74894.12    602.79079   -158.90034    57.433883    76.913451    88.812694    81.149606    1395.0988 
   11700   -1798186.2    37652.007    37139.195   -75560.383    -611.6823   -575.91326   -80.461774    76.917477    88.817343    81.153854    1397.4408 
   11800   -1798186.1    37289.152    36550.326   -75552.171   -456.00235    -77.57222   -576.88776    76.922124    88.822708    81.158756    1396.2294 
   11900   -1798173.5     37029.42    36951.026   -75471.688    62.008569   -720.56054   -3.1538177    76.922086    88.822664    81.158716     1395.683 
   12000   -1798135.8     38014.02    38120.472   -75139.977    489.17542    26.892248   -233.86814    76.917826    88.817745    81.154222    1393.6567 
   12100   -1798167.3     38041.21     38409.47   -75282.061    117.34727    368.10312    49.420981    76.913518    88.812771    81.149677    1398.3909 
   12200   -1798222.3    37462.859     38143.98   -74915.335   -61.603771    307.81661    -38.58748    76.914162    88.813514    81.150356    1404.5335 
   12300     -1798190     37544.68    37824.289   -75286.838    428.77647   -398.84749    134.07011    76.918425    88.818438    81.154854    1397.1435 
   12400   -1798255.5    36806.646    36456.472   -75770.248   -496.18178    49.402109    380.36004    76.921758    88.822286    81.158371     1405.216 
   12500   -1798206.6    37269.109    37314.504   -75490.438     756.3003   -82.999683    381.01185    76.919896    88.820136    81.156406    1401.0134 
   12600     -1798234    37201.926    37653.975   -75475.179    344.62416     383.7545   -46.312936     76.91686     88.81663    81.153203    1408.5387 
   12700   -1798205.4    37632.073     37807.49   -75048.139   -272.32629    96.756931    -20.76234    76.916181    88.815846    81.152486     1405.404 
   12800   -1798175.2    37505.118    37452.532   -75328.951    343.75924    450.47022    245.82373    76.918599    88.818638    81.155037    1398.2436 
   12900   -1798221.6    35973.011    36512.024   -75015.862    350.42918    80.115977     -238.104    76.919942    88.820189    81.156455    1400.6934 
   13000   -1798183.2    37177.904    37567.951   -75172.107    226.95894    117.89587    432.62621    76.917286    88.817121    81.153652    1394.2018 
   13100   -1798203.2    37209.508    37773.725   -74091.767    114.08376    116.07924   -137.76197    76.913277    88.812492    81.149422    1398.6087 
   13200   -1798201.3    38493.089    37570.732   -73592.875   -75.017772    389.36061    258.20927     76.91122    88.810117    81.147252    1402.0533 
   13300   -1798179.2    37830.466    38201.152   -74233.781     266.9014   -115.92907    597.43686    76.914003    88.813331    81.150188    1400.4906 
   13400   -1798187.5    37086.506     36870.18   -75010.791   -251.79494    254.19139    277.06398    76.921301    88.821758    81.157888    1400.1055 
   13500   -1798222.2    36480.989    36619.625   -75965.718    153.48515   -242.24198     629.3573    76.926119    88.827321    81.162971    1402.1486 
   13600   -1798220.1    36636.044    36965.959   -76134.598    194.92132    126.31584    452.50507    76.922257    88.822862    81.158897    1401.0313 
   13700   -1798248.1    38248.712     37996.65   -75175.659    30.503587   -389.95406    411.95151    76.912492    88.811586    81.148594     1406.566 
   13800   -1798198.3    39259.846    38503.971    -74644.55    636.18356   -320.61685    581.03072    76.906773    88.804982     81.14256    1401.4349 
   13900   -1798194.5    38454.112    38029.701   -75070.753    175.75532   -298.70654   -223.99508    76.910383    88.809151    81.146369     1399.135 
   14000   -1798175.7    37476.914    37584.008   -75356.917   -296.31081   -157.41409    -480.7191    76.919152    88.819277    81.155621    1394.2443 
   14100     -1798174    36628.126    36256.349   -75477.664    773.89711   -622.50619    840.32384    76.925711     88.82685    81.162541    1393.9005 
   14200   -1798181.7    37288.247    36821.072   -75795.746   -234.01999    6.8425527    144.10474     76.92288    88.823581    81.159554     1397.612 
   14300   -1798144.2    38331.668    38261.892   -74154.387   -107.66033    100.56893   -231.23751    76.914173    88.813528    81.150368    1395.7584 
   14400   -1798230.3     38352.79    38823.422   -74334.864    184.99289    -27.67252    234.30039     76.90908    88.807646    81.144994    1407.8009 
   14500   -1798208.7    38275.958    37712.386   -75246.442    281.57927    408.76154    218.19288    76.913466    88.812711    81.149622    1400.5114 
   14600   -1798198.7    37127.277    36929.824   -75872.782     -354.919    427.19886   -56.327771    76.921962    88.822521    81.158585    1394.7931 
   14700   -1798213.1    36088.333    36925.392   -75700.142    508.89059    363.28816    444.13878    76.924936    88.825956    81.161724    1397.3053 
   14800   -1798139.3    37270.684    36762.003   -75395.159    62.275205    810.31426   -483.99023    76.920429    88.820751    81.156968    1393.2847 
   14900   -1798135.3    37822.677    38325.779   -73553.283   -513.30799    579.26173    205.20556    76.913341    88.812566     81.14949    1397.6416 
   15000   -1798198.6     37878.01    38637.438    -74082.07   -399.51973   -646.64669   -286.16353    76.911805    88.810793     81.14787    1405.5818 
   15100   -1798237.1    37278.603    37761.358    -74584.86    2.4606089    859.55734   -184.35819    76.916925    88.816704    81.153271    1404.6103 
   15200   -1798219.1    36012.012    36247.676   -75688.918    289.03793    130.60087   -204.55089    76.923476     88.82427    81.160184    1395.7998 
   15300   -1798177.4    36787.936    36818.762   -75455.416   -19.319457   -63.676945   -199.75239    76.922336    88.822954    81.158981    1391.3065 
   15400   -1798217.4    37851.893    37617.883   -74397.944   -287.13696    245.84383    485.05809    76.915227    88.814745     81.15148    1403.0536 
   15500   -1798179.5    38980.848     38363.21   -73911.531    634.93141    303.72711     106.4317    76.910701    88.809518    81.146705    1402.7576 
   15600   -1798178.5    37294.897     37743.92   -74363.247    -154.5415    46.693427    62.817948    76.913743    88.813031    81.149914    1401.4019 
   15700   -1798231.3    37394.942    36858.837   -75291.184    113.71282   -491.13829     434.7393    76.920613    88.820964    81.157162    1403.0987 
   15800   -1798273.2    36934.668    35772.322   -75601.066    967.29778    256.47967    184.67727    76.924265    88.825181    81.161016    1404.6618 
   15900   -1798213.3    37450.423    36473.554   -75282.591   -135.81208    262.62746   -345.87852    76.920115    88.820389    81.156637    1398.0208 
   16000   -1798193.4    37379.603    38606.996   -74317.587   -497.61455    138.11913    577.07992    76.911251    88.810153    81.147285    1400.5838 
   16100   -1798251.5    38396.328     38510.64   -73615.801     455.3523     133.7728    264.51085    76.907759    88.806121    81.143601    1411.2674 
   16200   -1798174.2    38825.297    38018.089   -74470.086   -43.232849    13.965658   -217.77482    76.914901    88.814368    81.151136    1399.0447 
   16300   -1798204.3     35840.87    36536.501    -75552.62    82.374103    -21.45874    686.26818    76.925869    88.827032    81.162708    1397.6758 
   16400   -1798186.1    35910.976    35704.643    -75944.51   -154.46505   -34.102924   -262.76879     76.92737    88.828766    81.164292    1392.8552 
   16500   -1798268.6    37358.254     37428.48   -74191.089    646.32299   -510.66015    612.89146    76.917475     88.81734    81.153851    1407.2826 
   16600   -1798192.1    38466.019    38643.636    -73743.25    49.688489   -306.25471   -268.70589    76.908455    88.806924    81.144335    1401.9185 
   16700   -1798205.9     38391.02    38307.664   -74195.316    93.041023    167.13768      279.845    76.909663    88.808319    81.145609    1404.9099 
   16800   -1798215.7    37455.167    37035.079   -75184.088   -176.88462    260.80123   -220.42944    76.919045    88.819153    81.155508    1402.7601 
   16900   -1798254.4    36307.367    36356.607   -75996.446   -142.64163    212.60125    28.445335    76.926204    88.827419    81.163061    1404.3465 
   17000   -1798233.1      36647.5    36488.943   -75696.468   -122.12158   -259.20409   0.78115174    76.923107    88.823844    81.159794    1401.0901 
   17100   -1798172.8    38314.529     38263.77   -73876.698    291.71945   -7.2848744    -514.4368    76.911249    88.810151    81.147283    1396.0185 
   17200   -1798260.3    38489.146    38984.654   -73002.737    63.894276   -65.903749   -259.50664    76.904049    88.801837    81.139687    1409.5708 
   17300     -1798153    38229.912    37342.685   -73338.958   -168.62378   -412.15761   -616.24272    76.910049    88.808766    81.146017    1394.1369 
   17400   -1798163.8    36668.022     35089.91   -74950.632    164.14421   -54.883778    475.39706    76.923826    88.824674    81.160552     1393.124 
   17500   -1798216.8    35112.852    35502.635   -75321.882    305.24586   -606.15824   -210.51003    76.931588    88.833636    81.168742    1400.3944 
   17600   -1798219.4    36514.153    36433.102   -75979.084    113.60597    46.159861   -506.65109    76.925734    88.826877    81.162565    1404.3935 
   17700     -1798219    38774.078    37883.124   -74100.802   -182.56742    -361.8287   -88.037665    76.911135     88.81002    81.147163    1406.7574 
   17800   -1798187.8    39425.775    39734.653   -73964.305     171.5211   -185.02742    36.415516    76.902918    88.800531    81.138493    1400.6104 
   17900   -1798233.1    37836.841    38118.219   -74962.455   -372.83501   -465.06357    188.50392     76.90946    88.808085    81.145395    1400.4809 
   18000   -1798231.8    36529.959    36690.448   -77148.106    193.96181   -446.49038    142.90703    76.922986    88.823703    81.159666    1395.4133 
   18100   -1798245.9    36732.957    36419.193   -76683.293   -594.67553   -217.74738   -542.80121    76.929318    88.831016    81.166347    1400.9846 
   18200   -1798194.9    36753.113    37128.115   -75551.815    709.03924    357.30526   -23.687554    76.923826    88.824674    81.160553    1403.3648 
   18300     -1798173    38491.493    38492.225   -74691.131   -534.49185   -521.54864   -114.89234    76.912619    88.811732    81.148728    1405.8842 
   18400   -1798212.4     39736.65    38973.309   -73624.905    521.17786   -332.74537   -21.839301    76.907364    88.805665    81.143184    1406.8742 
   18500   -1798197.3     37740.09    37801.664   -75016.842      608.467    34.161495    48.927579    76.913807    88.813105    81.149982    1394.7799 
   18600     -1798236    36394.337    36834.427    -76007.03    145.89546   -79.645959    -581.1905    76.923498    88.824295    81.160206    1394.0979 
   18700     -1798262    36581.568    35965.002   -76103.973   -187.31727   -600.65429    578.87697    76.926032    88.827221     81.16288    1401.4565 
   18800   -1798155.8    36698.341    37850.451   -75184.839    192.99066   -355.71287   -218.82187    76.918407    88.818416    81.154835    1397.2606 
   18900   -1798190.1    38699.566    38686.151   -73657.589    76.475064   -63.124902    177.21736    76.909874    88.808563    81.145832     1409.078 
   19000   -1798204.6    38848.877    38415.872   -74434.888   -620.80319    271.25191   -340.34316    76.911372    88.810293    81.147413    1407.3617 
   19100   -1798198.5    36856.075    37217.067   -75766.469     812.6713   -295.45652    195.82788    76.920891    88.821284    81.157455    1395.6214 
   19200   -1798222.5    36457.625    36236.805   -75967.579    274.92387     52.53636    403.95185     76.92749    88.828904    81.164418    1392.1314 
   19300   -1798238.7    37923.052    37071.921    -76552.11    617.09051    376.41186    287.67261    76.922272    88.822879    81.158913    1398.5227 
   19400   -1798251.1    37821.919    38936.557   -74858.956   -15.749415    201.30861   -16.000688    76.909705    88.808367    81.145653    1411.0865 
   19500   -1798212.5    39938.351    38394.861   -74084.249   -99.736457    124.71385    260.60329    76.903973    88.801749    81.139606    1411.9908 
   19600   -1798192.5    37908.667    38497.035    -74529.16   -400.16518    63.474482   -100.72806    76.913854    88.813159    81.150032    1403.8597 
   19700     -1798193    35183.546    35683.053   -76427.479    277.95064    613.10488    44.804987    76.929598    88.831339    81.166642    1394.2678 
   19800   -1798227.7    35953.636    35095.184   -76827.923   -4.2141483   -117.49895   -7.6440132    76.931762    88.833837    81.168926     1395.123 
   19900   -1798185.1    37042.589    37285.601   -75887.615   -57.602711    300.49256   -10.817424    76.918145    88.818114    81.154559    1394.5204 
   20000     -1798207     39684.58    40255.631   -74130.507    452.21189   -72.087897    79.772557    76.901757    88.799191    81.137268    1404.9629 
   20100   -1798197.9    39521.567    41061.799   -74337.795   -63.560096   -27.257885   -267.16536    76.901534    88.798933    81.137033    1405.2028 
   20200   -1798187.2    38187.319     37608.74   -75882.075   -984.64657   -92.559401   -540.78981    76.919157    88.819283    81.155627    1398.5787 
   20300   -1798228.6     35140.08    34687.392     -78178.9    157.31738    349.64388   -235.99374    76.936163    88.838919    81.173569    1398.8512 
   20400   -1798222.5    35013.603    35245.726   -77428.324    508.37056     18.00412   -397.86416    76.933555    88.835908    81.170818    1398.9666 
   20500   -1798178.2    38559.457    38324.245   -74428.028    -1038.494    240.17668   -631.97845     76.91237    88.811445    81.148465    1398.6318 
   20600   -1798192.8     39975.95    40023.049   -73532.408   -280.58776   -345.89736   -476.09604    76.895507    88.791973    81.130674    1404.3599 
   20700   -1798227.4    38646.428    39905.502   -73978.579    293.59774   -111.11937   -552.97021    76.900813      88.7981    81.136272    1404.9491 
   20800   -1798213.4    36445.462     36936.12   -75678.066   -609.24366    273.20506   -870.03673    76.922784     88.82347    81.159453    1395.9195 
   20900   -1798197.5    34316.582    34969.037   -78370.189   -173.63337     41.58886   -441.85631    76.938971    88.842162    81.176532    1392.3665 
   21000     -1798191    35479.808    37324.989   -76413.594   -530.81252    638.07177    -441.6358    76.932249      88.8344    81.169439    1399.2445 
   21100   -1798175.5    38407.035    39503.845   -74423.188   -391.74973    468.15739   -465.48555    76.913317    88.812538    81.149464    1405.9536 
   21200   -1798207.3    39296.165    39159.289   -73901.447    -533.2124    578.51342   -1056.2601    76.902881    88.800488    81.138454    1411.1891 
   21300   -1798169.2    38226.477    38919.843   -74089.673    46.720211    174.64256    -729.3427    76.908612    88.807106    81.144501    1395.0527 
   21400   -1798235.8     35237.35    37665.862   -76048.389   -325.10679    774.10387   -118.73631    76.923118    88.823856    81.159805    1392.9006 
   21500   -1798231.1    35926.769    36004.939   -76940.621   -6.7793457    179.68048   -149.83798    76.930107    88.831926    81.167179    1392.6084 
   21600   -1798145.8    35881.378    36731.573    -75740.67    101.80689    77.294307   -490.22307    76.923919    88.824781     81.16065    1392.7011 
   21700   -1798168.7    38702.211    38595.899   -74545.455    323.75677   -543.60466    349.49026    76.911799    88.810786    81.147863    1407.4069 
   21800   -1798136.1    38516.352    38899.014   -74134.727     60.70106   -911.11554   -206.49634    76.909745    88.808414    81.145696    1403.0559 
   21900   -1798215.7    37266.141    37993.732   -74889.903     359.7106   -375.33547    199.52706    76.917487    88.817354    81.153864    1402.5124 
   22000   -1798240.5    35599.811    36368.924   -76000.335    66.432722   -358.84562    23.323269    76.926011    88.827196    81.162857    1394.8167 
   22100   -1798202.4     36333.45    36556.672   -75006.868     711.9108   -320.44744    803.77793     76.92497    88.825995    81.161759    1388.8466 
   22200   -1798210.6    38005.107    37916.295   -74483.838   -392.76468    44.807709   -28.017071    76.915994     88.81563    81.152289    1399.9394 
   22300   -1798191.9    38133.256    39141.616   -74524.443   -10.996448    229.49976   -85.684724    76.908572     88.80706    81.144459      1407.42 
   22400   -1798165.8     39165.53    38513.103   -75025.092   -310.21355    177.45097   -164.27686    76.910833    88.809671    81.146844     1404.971 
   22500   -1798206.1    37724.556    37019.577   -76431.596   -138.99066    129.10318    370.99188    76.921963    88.822522    81.158587    1401.9364 
   22600   -1798236.2    35530.877    36464.992   -77052.796    1.7925145    161.65207    185.41703    76.928998    88.830646    81.166009    1396.9907 
   22700   -1798221.6    37319.229    37052.153   -76307.623    451.83143     112.8926    680.25394    76.923152    88.823895    81.159841    1394.0064 
   22800     -1798200    39410.652    37928.129   -75509.047   -33.987205    -219.3467    462.12427    76.911162    88.810051    81.147191    1398.6527 
   22900   -1798178.3    39306.253    38800.407   -75009.978    43.843872    277.79969   -339.31613    76.905841    88.803906    81.141577    1403.2498 
   23000   -1798146.4    38168.521    38709.791   -74971.617    332.94644    675.64241    421.68254    76.912433    88.811518    81.148532    1399.0106 
   23100   -1798190.2    36744.309    37223.076   -75159.326    166.58806   -490.44479   -412.91533    76.925249    88.826317    81.162054    1397.6837 
   23200   -1798214.4    36499.678    35048.286   -76340.268   -528.09093   -466.22628   -378.37732    76.932864     88.83511    81.170088    1394.7771 
   23300   -1798216.6    35758.226     36722.24   -75922.243   -190.75613     509.2291    134.14717    76.925578    88.826697    81.162401    1396.3392 
   23400   -1798210.4    39336.026    38614.259   -73970.309     192.3942   -196.53366    351.85147    76.908752    88.807267    81.144648    1402.6796 
   23500   -1798153.7    39826.269    40163.987   -73399.355   -441.22321   -387.87774   -208.34217    76.901218    88.798568    81.136699     1399.432 
   23600   -1798213.4    38075.269    38902.949   -75264.192  -0.14672549     74.15435    155.22959    76.910996    88.809858    81.147015    1404.8657 
   23700   -1798170.1    36011.546    36231.098    -76291.76    61.696048     55.35847    -301.7279    76.926907    88.828231    81.163803    1392.2525 
   23800   -1798235.8    35348.025    35846.876   -76959.534   -51.563373    84.240376    567.88445    76.931639    88.833695    81.168795    1397.5563 
   23900   -1798168.6    37555.286    37448.852    -75554.43    234.01713    416.99513    272.59913    76.919762    88.819981    81.156265     1392.628 
   24000   -1798199.5    39200.105    39202.834   -73848.141    684.82599    323.39217    418.79611    76.905203    88.803169    81.140903    1403.7027 
   24100   -1798233.9    38602.807    39219.259   -73506.415    66.268272    145.85664    405.76493    76.905217    88.803186    81.140919    1410.0318 
   24200   -1798241.9    36591.469     37469.93   -74595.195   -701.56107    331.72881   -133.40025    76.919484    88.819659    81.155971    1405.9706 
   24300   -1798227.5    35303.323    34893.283   -75719.751    -73.11727     217.6891   -195.27961    76.931226    88.833219     81.16836    1398.1604 
   24400   -1798225.1    35189.751     36497.12   -75338.503    93.742297    213.43723    409.91035    76.927414    88.828817    81.164338    1398.4633 
   24500   -1798181.7    38622.218    37952.317    -73764.63   -145.50747    119.38166    177.07078    76.911946    88.810955    81.148018    1398.4988 
   24600   -1798154.8    39387.277    39969.573   -72935.706   -135.20549    52.169231    32.958237    76.903049    88.800683    81.138632    1399.2751 
   24700     -1798202    37750.406    38031.392   -74004.081    199.54873    18.530886    1.7554186    76.910529     88.80932    81.146523    1403.5267 
   24800     -1798235    35372.361    36999.266   -75740.015    -461.8805    204.11799   -184.82866    76.926066    88.827261    81.162916    1401.7034 
   24900   -1798215.6    34619.994    35332.853   -76915.469    434.35044    929.60599     111.2085    76.932487    88.834674     81.16969    1395.3559 
   25000   -1798177.3    36486.106    37196.556   -75679.473   -121.15791    619.92077   -350.52671    76.922605    88.823264    81.159265    1392.8669 
   25100   -1798197.7    38733.878    38179.812   -74273.545   -407.75527   -40.655714   -579.00044    76.906987     88.80523    81.142786    1402.0481 
   25200   -1798191.5    39388.272    39991.998   -73579.694    707.51376    605.63948    160.06868    76.901438    88.798822    81.136932    1404.2482 
   25300   -1798217.3    37560.002    38615.556   -74974.132    201.08893    233.73353    692.14913    76.911085    88.809961     81.14711    1402.9881 
   25400   -1798192.5    36433.201    36711.953   -76213.159     205.5538    40.052909   -35.109115    76.924431    88.825372    81.161191    1393.0496 
   25500   -1798171.5    36406.687    36183.919    -76120.88    465.16899     414.1509     425.8615    76.929546    88.831279    81.166588    1389.4601 
   25600   -1798213.2    36259.585    36547.487   -75195.473    235.27166   -429.10554    451.53312    76.922334    88.822951    81.158978    1402.7315 
   25700   -1798201.1    38700.459    38324.192    -73769.92    281.64677    352.61171     702.0266      76.9103    88.809055    81.146281    1407.5796 
   25800   -1798189.7    39197.285    38865.275    -73560.53      431.889    385.62359    256.40768    76.906855    88.805077    81.142647    1403.0804 
   25900   -1798206.8    37597.212    37633.303   -75113.706    184.40793    756.72189    199.36695    76.915519    88.815082    81.151788    1394.5019 
   26000   -1798244.3    36812.282    36589.738   -76397.353   -156.85525    740.35185    283.25772    76.924358    88.825288    81.161114    1397.6299 
   26100   -1798211.5    36657.349    36816.967   -75883.474   -77.692588    335.68509    339.95223    76.924955    88.825977    81.161743    1397.4736 
   26200   -1798187.8     37749.29    37715.905    -74521.81    218.20907   -284.53678    458.84701    76.917561    88.817439    81.153942    1401.6439 
   26300   -1798171.3    38126.407    38775.388   -74073.873   -570.04232    263.97331    428.98563    76.910739    88.809562    81.146744    1402.4113 
   26400   -1798204.1     38801.08    37510.521   -75375.206   -46.964546    219.28709    247.04652    76.911651    88.810615    81.147707    1399.6464 
   26500   -1798231.7    36942.927    37833.087   -76116.888    413.71513   -349.77354    1042.2727     76.91705    88.816849    81.153403    1392.9168 
   26600   -1798262.7    36599.255    37929.586   -76384.095    268.88114   -9.9795528    103.26483    76.919544    88.819729    81.156034    1400.1029 
   26700   -1798145.2    37186.362    38396.532   -75355.327    324.58616   -218.69094    642.12287     76.91728    88.817114    81.153645    1391.5768 
   26800   -1798196.7     38029.19    38130.516   -75113.456    269.65641   -355.03774    208.99017    76.915583    88.815155    81.151855    1402.5425 
   26900   -1798161.4     37485.57     38507.29   -74879.154    465.27255     71.91114    580.25785    76.916261    88.815938    81.152571    1396.8591 
   27000   -1798211.5    36379.749    38174.759    -74933.46     676.8435    79.658557    248.32472    76.918181    88.818156    81.154597    1401.4578 
   27100   -1798201.9     36772.33    37712.613   -75216.369   -109.82115    57.333987    248.25585    76.918301    88.818294    81.154723    1398.9982 
   27200   -1798156.5    37595.332      37587.6   -74383.418    24.722241   -352.17619    130.76498    76.916882    88.816656    81.153226    1393.0891 
   27300   -1798249.4    37095.546    36972.841   -74680.335    92.122467    146.02014    255.88584     76.91556    88.815129    81.151832    1405.7942 
   27400   -1798239.3    37229.738    37699.097   -73916.931    390.66796    115.86591       85.276    76.915097    88.814595    81.151343     1403.965 
   27500     -1798197    37462.029    37931.963   -74548.894   -197.56691   -471.81398    87.048519    76.916595    88.816323    81.152923    1397.4245 
   27600     -1798200    37158.375    36904.925   -74488.333    343.31646   -133.32376    304.70399    76.918787    88.818855    81.155236    1397.0298 
   27700   -1798152.9    37288.196    37226.717   -74570.828    291.83398   -261.65618     494.2783    76.918529    88.818557    81.154964    1391.9145 
   27800   -1798202.6    37368.023    37288.871   -74538.344   -150.39987   -436.40469     24.24515    76.916824    88.816589    81.153165     1403.678 
   27900   -1798217.4    37479.208    36950.975   -75060.724    127.81413    315.00037    -374.8193    76.917698    88.817597    81.154087     1410.193 
   28000   -1798156.6    37289.907    37148.719    -75386.47     83.78129   -198.03429    -62.34423     76.92048    88.820809    81.157022    1399.2643 
   28100   -1798235.4    37311.171    36952.044   -75050.804    98.949918   -560.35061   -211.80818    76.921249    88.821698    81.157833    1398.2841 
   28200   -1798197.8    36946.491    36195.238   -75362.213     522.2017    270.64349    373.97501    76.917732    88.817636    81.154122    1390.6654 
   28300   -1798234.9    37413.626    38950.008   -74246.365   -81.336113    293.25671   -711.10676    76.910882    88.809727    81.146896    1401.3281 
   28400   -1798200.7    38423.558    37318.408   -73884.258   -496.77951   -454.04829    -316.2846    76.908611    88.807105    81.144499    1403.6192 
   28500   -1798217.4    38316.493    37365.684   -74163.602    628.42537    111.31925     119.5513    76.914463    88.813862    81.150673    1406.0369 
   28600     -1798191    35737.197    37537.678    -75094.39    425.93944   -121.75032   -256.19067     76.92333    88.824101     81.16003    1400.8855 
   28700   -1798182.4    36836.956    35849.692   -75206.838   -409.98847    26.670569    94.723729    76.926542     88.82781    81.163418    1397.4804 
   28800     -1798214    37215.852    36527.253   -74852.375    810.73914   -4.9688937    63.653509    76.920238    88.820531    81.156767    1397.3134 
   28900   -1798268.9    36988.144    38473.127   -75007.764    29.548982   -24.461044   -54.047897    76.910003    88.808712    81.145969    1398.9942 
   29000   -1798323.9    39198.997    38661.683   -74113.648   -232.37018   -92.568933   -904.62219    76.903844    88.801601     81.13947    1402.6674 
   29100   -1798263.1    38190.409    38688.025   -74627.731    200.62666   -418.55776    54.379587    76.908961    88.807509    81.144869    1401.2484 
   29200   -1798213.4    37283.497    37414.841   -75614.203     87.40122   -2.6956308    514.18854    76.920161    88.820442    81.156686    1404.7173 
   29300   -1798170.4    36810.241    36467.052   -75799.239     186.4945    126.34864   -32.332151    76.928523    88.830098    81.165509    1400.5624 
   29400   -1798164.7    37347.869    35685.129   -75498.159   -198.22889   -513.43077    503.48829    76.926504    88.827766    81.163378    1397.0075 
   29500   -1798199.4    38300.372    36902.343   -74830.868    126.03202   -434.55894   -130.37668    76.916021    88.815661    81.152317    1391.5952 
   29600   -1798226.2    39159.085     38805.35   -73957.837    142.17874   -198.89996    113.68619    76.905106    88.803057    81.140801    1389.0926 
   29700     -1798277    39284.827    38557.783    -74763.98   -553.03404   -529.85992    533.75854     76.90329     88.80096    81.138885    1401.6405 
   29800   -1798228.1    37974.793    36959.737   -74530.235    106.18499    -221.4976   -255.82964    76.914028    88.813359    81.150214    1403.3983 
   29900   -1798222.5    36443.215    36855.568   -75422.854    396.32578   -94.962397    568.21376    76.928756    88.830367    81.165754    1403.4283 
   30000     -1798196    35597.423    35094.094   -76810.218    159.18579   -445.56362    54.710251    76.934385    88.836866    81.171693    1400.5442 
   30100   -1798134.1    36721.517    36780.158   -74741.319   -142.02379    -352.0289    363.57084    76.923725    88.824557    81.160446    1394.2734 
   30200   -1798179.7    38766.212    38460.823   -73383.507    770.35556   -271.04946    706.08734    76.907103    88.805363    81.142908    1401.4249 
   30300   -1798234.6    39254.477    38900.833   -73113.496    379.35705     831.8091   -235.89769    76.901088    88.798418    81.136563    1401.7785 
   30400   -1798226.7     37626.36    38726.907   -73191.825   -42.784856    112.16634     351.9563     76.91047    88.809251     81.14646    1392.4613 
   30500   -1798228.7    36348.215    36766.862   -75683.755    412.37747    138.38425   -125.11135    76.925333    88.826414    81.162143    1393.9669 
   30600   -1798176.9    35974.063    35856.227   -76135.273    826.77968   -216.91437    787.88222    76.931282    88.833283    81.168419    1398.8461 
   30700   -1798086.4     37328.93    37698.111   -75184.079    44.028671   -59.087852   -692.76412    76.924308    88.825231    81.161061    1389.3627 
   30800   -1798167.7    38405.295    38055.802   -74798.681    -195.6705   -43.716669   -287.97781     76.91204    88.811065    81.148118    1397.3538 
   30900   -1798257.4    38784.907    38508.723   -74163.805    510.00971   -126.79361     572.2235    76.906128    88.804237    81.141879    1403.2355 
   31000   -1798277.8    38062.663      38349.5   -74311.054   -366.79807    285.07809   -130.85507    76.909602    88.808249    81.145545    1400.2779 
   31100   -1798257.6    36793.383    36813.011   -75622.895   -18.225269    266.61178   -20.259038    76.918858    88.818936     81.15531    1396.9844 
   31200   -1798127.1    36597.899    37198.992   -75512.969   -275.54949    84.309801   -282.41997     76.92343    88.824216    81.160135    1392.8505 
   31300   -1798159.2    37279.478     36698.49   -74232.615   -582.67451    35.104067   -39.862263    76.922354    88.822974    81.158999    1402.1107 
   31400   -1798204.5    37185.141    37215.918   -74159.913    449.69648    -737.5354    222.68496    76.919813    88.820039    81.156318    1404.5259 
   31500   -1798238.8    37130.541    36890.672   -75394.083    260.34004   -267.64136    286.50067    76.916616    88.816349    81.152946    1400.3337 
   31600   -1798210.2    38973.812    37416.358    -73732.98   -33.478853   -551.94213    59.826888     76.91158    88.810533    81.147632    1392.2866 
   31700   -1798234.4     38584.73    37251.129   -74109.059    1426.0795    -440.4911    938.89365    76.910937    88.809791    81.146954    1398.3893 
   31800   -1798206.3      37653.2    37486.596   -73657.318    548.52819     458.3119    521.27701    76.915973    88.815605    81.152266    1399.2379 
   31900   -1798227.5    35939.792    36728.806   -75059.249    127.35868    119.71996    271.07442    76.923757    88.824594     81.16048    1403.0663 
   32000     -1798180    37105.938    35410.529   -75848.866    477.89716   -587.92287    931.84005    76.925984    88.827165    81.162829    1398.3055 
   32100     -1798157    37409.764    37359.812   -74777.013    512.78061     393.0483   -99.240389    76.919443    88.819613    81.155928    1396.6719 
   32200   -1798211.8     37612.73    38811.676   -73851.468    544.29457    365.50888    836.91515    76.910693    88.809508    81.146696    1402.7342 
   32300   -1798218.3     38463.56    38219.779   -74158.012    -184.6723    162.80433    487.02312    76.908647    88.807146    81.144537    1396.2507 
   32400   -1798257.5    37754.123    37116.186     -74968.6    168.94563   -425.91281   -138.87098    76.913955    88.813275    81.150138    1395.4371 
   32500   -1798242.4     36320.56    37021.473   -75672.762    30.936215    329.52971   -235.64616    76.921151    88.821584     81.15773     1398.261 
   32600   -1798156.6    37786.457    37297.894   -74846.729   -189.84879    551.80605    145.83309    76.923647    88.824467    81.160363     1399.242 
   32700   -1798198.8    37647.262    36853.663   -75675.036    464.52364   -431.85698   -418.82884    76.921863    88.822407    81.158481    1405.3467 
   32800   -1798188.4    36979.189    38228.123   -74378.846    139.82556    506.82338    863.93686     76.91686     88.81663    81.153203       1399.7 
   32900   -1798195.2    37033.346    38250.046   -74618.613   -334.59094    332.39983   -254.51332     76.91253     88.81163    81.148634    1393.0362 
   33000   -1798277.4    37522.904    38589.036   -74708.715    580.62097   -141.30055    664.69284    76.910218    88.808961    81.146195    1398.4038 
   33100   -1798228.5    38314.359    36472.992   -74718.852   -1139.9737    93.023386   -485.09104     76.91285       88.812    81.148972    1396.3542 
   33200   -1798207.4    37211.363    37419.832   -75591.627   -840.07826    170.95524   -493.62033    76.918478    88.818498     81.15491    1406.4714 
   33300   -1798163.1    37290.004    37864.327   -75434.979    316.94116   -241.73005    256.30642    76.923254    88.824013    81.159949    1402.3774 
   33400   -1798228.7    37606.133    36053.976   -75474.461    -234.1943   -423.72378    159.22726    76.923778    88.824619    81.160502    1404.9659 
   33500   -1798195.6    37168.458    36784.502   -74832.886    -281.6841   -110.55113    9.1539408    76.918619    88.818661    81.155059    1392.9447 
   33600   -1798260.7    37798.627    37270.757   -74619.635   -792.56555   -296.28425    -384.2021    76.912073    88.811102    81.148152    1400.2808 
   33700   -1798186.9    38788.738    38440.484   -73286.654    537.89632   -519.69361    213.72236    76.909354    88.807962    81.145283    1399.9937 
   33800   -1798186.3    37940.895    37661.231   -73597.829   -238.40946   -581.91241    274.72515    76.915435    88.814985      81.1517    1409.8341 
   33900   -1798221.7    36700.907    35280.866   -76429.177   -318.91545   -345.82276    122.24458    76.927271    88.828651    81.164187    1409.9919 
   34000     -1798256     36255.34    35703.407    -76735.44    460.85143   -529.67822    573.13193    76.930404    88.832269    81.167493     1407.002 
   34100   -1798147.8    37678.181    37586.042   -75287.949    871.60328    293.22273    807.57552     76.91909    88.819205    81.155556    1388.0187 
   34200   -1798241.3    38910.061    39353.393   -73922.293     589.5962    173.34838    608.58911      76.9038    88.801549    81.139423    1401.6407 
   34300     -1798154    39185.083     39992.99   -73178.663    249.89991    198.26712    215.73666    76.899119    88.796144    81.134485    1395.3337 
   34400   -1798104.3    38348.924    38462.352   -74375.885    -183.3313    294.20585    913.91328    76.911932    88.810939    81.148003    1398.6384 
   34500   -1798198.7    35551.182    35942.586   -76426.682     147.8491    555.39516  -0.21958777    76.932968     88.83523    81.170198    1408.5181 
   34600   -1798182.9    35115.582    33974.701   -77248.937    79.203687    11.858015    521.04008    76.941365    88.844926    81.179057    1396.5046 
   34700   -1798221.1    36848.654    35992.342   -76030.236     653.6195    107.85092    483.34889    76.926832    88.828144    81.163724    1398.8254 
   34800   -1798226.2    38516.362    39565.788   -73581.802    387.10643     203.2175    307.17121    76.901953    88.799416    81.137474    1400.8717 
   34900   -1798213.2    41245.368    39905.728   -72176.886    486.91436   -25.207992    601.06302    76.890925    88.786683     81.12584     1400.067 
   35000   -1798237.6    37607.036    39426.396   -74268.136    768.86012   -194.48789    923.47047     76.90573    88.803778     81.14146    1398.9636 
   35100   -1798241.8    35678.796    35586.147   -76105.812    329.59497   -15.860014    252.21253    76.930251    88.832093    81.167331    1394.0257 
   35200   -1798228.6    34880.429     34069.26   -76861.909   -599.18588    191.89439     72.62557    76.939425    88.842686    81.177011     1396.939 
   35300   -1798193.3    36561.611     36337.68   -74517.327    242.01462   -224.90811    826.00236    76.926566    88.827838    81.163444    1402.7653 
   35400   -1798194.7    38954.026    39078.919    -73556.52    51.236076    485.31038    707.92513    76.906013    88.804104    81.141758    1404.5052 
   35500   -1798239.2    39678.793    39438.154   -72649.706   -475.04492       178.56   -347.45399    76.897056    88.793762    81.132308    1403.8311 
   35600   -1798270.6    38658.538    38294.022   -72991.915    224.77164    359.34138    250.00959    76.906991    88.805234     81.14279    1400.9579 
   35700   -1798244.2    35270.823     35517.72   -75970.364    213.97635    15.651974    391.32207    76.925665    88.826797    81.162492    1398.4044 
   35800   -1798208.5     35045.58    34992.292   -76470.654   -283.54588    61.964631    92.537902    76.933825     88.83622    81.171102    1397.9344 
   35900   -1798221.2    36641.365    36157.933   -74923.465   -14.964784    31.448494   -189.11901    76.925551    88.826665    81.162372    1404.2297 
   36000   -1798213.9    38015.585    38039.331   -74010.917   -304.10743    126.80054   -200.24854    76.910312    88.809069    81.146294    1405.8072 
   36100   -1798280.8    38775.802    38999.452   -73126.203   -199.51785    253.24212   -275.72679    76.901476    88.798866    81.136972    1407.7094 
   36200   -1798325.7    37438.447    37957.388   -73947.377    595.83098    -24.19403    300.18487    76.906548    88.804723    81.142323    1401.3652 
   36300   -1798296.2     36966.53    36543.938    -74213.62    111.83911   -156.57277     98.72977    76.918665    88.818714    81.155107    1401.7084 
   36400   -1798180.1    35691.412    36501.746   -74798.414    157.84927    -449.5629   -284.66841    76.927099    88.828453    81.164006    1396.0548 
   36500   -1798215.7    36183.093    35810.949   -74882.138    690.40957    36.385431    -138.3957    76.925888    88.827054    81.162728     1405.444 
   36600   -1798176.5    37430.009    37955.884   -73590.397   -62.388598    248.77755   -342.71682    76.915734     88.81533    81.152015    1400.4641 
   36700   -1798206.5    38341.136    39330.879   -73320.789   -317.36237    531.67992    33.860666    76.908721    88.807231    81.144615    1396.7365 
   36800   -1798240.4    38416.741    37586.608   -73959.752    565.45384   -507.51141    384.65263    76.910363    88.809127    81.146347    1391.0263 
   36900   -1798229.2     37514.85    37721.665   -74492.854   -146.86237    338.76285    240.99411    76.916892    88.816667    81.153237    1392.8467 
   37000   -1798197.8    37282.513     37478.54   -75109.048    254.83395   -5.1926865   -522.18161    76.921849    88.822391    81.158467    1395.4796 
   37100   -1798194.6     37609.34    36963.097   -74260.141   -5.9530184   -194.89811   -321.79311    76.920851    88.821239    81.157414    1399.5135 
   37200     -1798253    36611.836    36821.329   -74585.008   -472.88277   -51.822849   -468.91792    76.916672    88.816413    81.153005    1409.1173 
   37300   -1798182.6    37806.896    37398.147   -74389.287   -172.10295   -395.87893   -275.75469    76.914393    88.813781      81.1506    1398.1931 
   37400   -1798263.3    37948.286    36974.035   -74467.021   -295.03968   -901.07627   -418.88115    76.915033     88.81452    81.151275    1397.5652 
   37500   -1798222.2      36955.6    36726.246   -74740.282   -307.72416   -183.57593    213.45793    76.915862    88.815477     81.15215    1388.1155 
   37600   -1798207.3    37932.956    36994.327   -74461.274   -234.38918   -9.3303332   -629.52398    76.915433    88.814982    81.151697    1394.6902 
   37700   -1798176.6    38215.865    37030.842    -74194.42   -619.56695   -847.96481   -622.79799     76.91491    88.814379    81.151146    1396.8272 
   37800   -1798238.8    37509.776    37725.224    -74831.29   -126.53607    -346.6312   -248.65687    76.916393    88.816091     81.15271    1406.3594 
   37900   -1798247.6    36769.471    37394.514   -75442.921    398.71847   -98.295368    348.33567    76.919555    88.819742    81.156046     1405.883 
   38000   -1798259.4    36589.463    36531.189   -75483.633   -184.43225    -282.6384    188.64869     76.92175    88.822277    81.158363    1400.2996 
   38100   -1798295.5    36562.482    37159.029   -75687.329   -923.67877    664.21304   -539.10369    76.919241     88.81938    81.155715    1396.8695 
   38200   -1798189.9    38254.905    38226.472   -74368.784    468.92536   -312.06778    87.344727       76.913    88.812172     81.14913    1388.5599 
   38300   -1798217.8    38049.998     37851.25   -74919.761     369.6766    74.162501    469.38715    76.910149    88.808881    81.146122    1402.8397 
   38400   -1798168.8    38441.798    38368.184   -75090.562    107.37425    304.17932     307.0935    76.914121    88.813467    81.150313    1397.1317 
   38500   -1798191.7    36522.715    37097.554   -76434.932    69.391502   -426.60037    480.95541    76.921543    88.822038    81.158144    1398.7419 
   38600   -1798227.6    36504.643    35705.046   -76220.775   -349.68633    351.57197    400.77424    76.925297    88.826372    81.162104    1399.3156 
   38700   -1798257.6    36933.182    37028.828   -75885.973    109.86959    214.38963    218.45814    76.919501    88.819679    81.155989    1397.5522 
   38800   -1798254.6    38048.068    38270.384   -75032.053      -18.883    785.04673    101.64941    76.909138    88.807713    81.145055     1395.621 
   38900   -1798173.6    38343.044     39806.15   -74056.467   -557.37556    610.95299   -60.235469    76.904309    88.802137    81.139961    1394.4046 
   39000   -1798206.4    38612.335    37904.779   -74398.174   -222.81055    257.58772    172.06457    76.911124    88.810006     81.14715    1405.8496 
   39100     -1798200    35990.821    37997.203   -75441.993    79.936636    405.09199   -288.26897    76.923082    88.823814    81.159767    1402.7328 
   39200   -1798203.9    35952.223    36002.545   -77297.452    461.83903    691.15863    224.91926    76.931366    88.833381    81.168508    1397.4348 
   39300   -1798254.3    36435.773      36535.2   -76036.186   -285.61526    319.97955    282.94629    76.926453    88.827707    81.163324    1395.0984 
   39400   -1798280.2     37359.23    37781.811   -74805.301    -84.83868    729.14703    150.97764    76.910396    88.809166    81.146383    1389.7131 
   39500   -1798248.4    38750.814     39951.94   -72622.978    280.97776   -99.739153    3.5338413     76.89711    88.793825    81.132365    1395.7794 
   39600   -1798266.7    38450.491     39884.37   -74010.967    197.85067    495.73561    362.01116    76.901781    88.799218    81.137294    1407.0625 
   39700   -1798172.7    36883.288    37944.388   -75426.749    451.02323    245.38723    351.02732    76.920524    88.820861    81.157069    1396.3228 
   39800   -1798186.3    34414.769    35729.564   -76930.925   -214.94173    139.07558    39.132022    76.936151    88.838905    81.173556    1400.4564 
   39900   -1798177.9    36098.892     35747.59   -75765.969    -155.9582    584.39102    429.93756    76.933099    88.835381    81.170336    1402.5552 
   40000   -1798199.6    37809.721    38603.166   -74827.133    47.866406    571.20111    304.77635    76.916812    88.816575    81.153152     1406.163 
   40100   -1798211.2    39095.644    39854.734   -73530.107    723.77813    314.64589    646.17781    76.902857    88.800461    81.138429    1398.8795 
   40200   -1798247.4    39335.126    39620.756   -73768.881    55.380918    1123.3705    108.98633    76.902202    88.799704    81.137738    1396.1439 
   40300   -1798267.3    37937.156    38134.483    -75039.87   -29.060039   -250.44969   -60.487815    76.913671    88.812947    81.149838    1400.2225 
   40400   -1798140.7     36412.53    36068.213   -75233.149    270.74703   -295.32634    213.37735    76.926258    88.827482    81.163118    1392.6238 
   40500   -1798155.7     35600.97    35634.454    -76347.83    80.554921    7.0739455    403.79418    76.930092    88.831909    81.167163    1399.5543 
   40600   -1798194.5    36409.646     37353.27   -74286.459    -17.71221    464.88111   -195.31491    76.922069    88.822644    81.158698    1402.8716 
   40700   -1798199.7    37962.948    37775.179   -73364.299    400.76964    135.14637    134.63954    76.912081    88.811112    81.148161    1399.8487 
   40800   -1798243.6    38313.769     38271.59    -73435.32   -19.714874       438.41     318.6816    76.908271    88.806712    81.144141    1398.3004 
   40900   -1798240.3    37720.984    37490.958   -74016.288    38.673577    23.395927   -228.59479    76.911664     88.81063    81.147721    1390.9222 
   41000   -1798256.4    36118.517    37276.949    -74638.64   -366.08588   -239.96411    198.86538    76.916288     88.81597      81.1526    1388.5934 
   41100   -1798268.3      36784.2    37473.965    -74537.29    253.44683    246.45572    110.74368    76.916888    88.816662    81.153232    1400.2216 
   41200   -1798191.4    37684.315    37589.782   -74796.215   -259.45393   -248.27574    379.90879    76.916235    88.815909    81.152544    1399.7205 
   41300   -1798153.6    37209.087    37874.484   -75255.222    183.17963    111.84486   -46.028017    76.917188    88.817008    81.153549    1398.1455 
   41400   -1798233.5    36774.405     37719.87   -75764.675    147.09244    113.24981    466.69227    76.919464    88.819636     81.15595    1407.1579 
   41500   -1798244.5    37521.258    37188.294   -76065.681    152.61311    158.42735    503.18634    76.919078    88.819191    81.155543    1400.1223 
   41600   -1798213.6    37489.713    37686.161   -75626.579   -47.698459   -264.32024    822.21154    76.914649    88.814077     81.15087    1390.3401 
   41700   -1798272.4    38134.055    37507.366   -74687.051    118.98727   -478.49526    218.87664    76.909681    88.808341    81.145629    1403.9873 
   41800   -1798185.8    38869.851     37596.95   -73983.321    658.28942    70.123363    55.329769     76.91007     88.80879    81.146039    1405.5958 
   41900   -1798163.4    37505.547    37469.291   -74540.229   -384.70813   -577.18227   -124.69305    76.918699    88.818753    81.155143    1400.3819 
   42000   -1798178.6    36286.751    36372.866   -75244.351   -449.05616   -473.22801   -148.17007    76.927435    88.828841    81.164361    1395.3875 
   42100   -1798239.5    36682.488    35475.091   -75578.559   -13.133802    -818.3924   -269.16311    76.925973    88.827152    81.162817    1399.4746 
   42200   -1798249.8    37904.891    37241.302   -75269.917    271.71512   -77.578272   -8.0162393    76.913795     88.81309    81.149969    1403.4588 
   42300   -1798160.8    38602.252    39478.726   -74320.366   -758.81122   -254.95769   -441.45353    76.903889    88.801652    81.139517    1404.2698 
   42400   -1798122.4    39783.604    38504.808   -73776.048   -279.47925   -598.81333   -425.37575    76.908487    88.806961    81.144368    1399.8136 
   42500   -1798186.4    36917.922    36088.906   -76232.814   -492.37106   -250.37025   -1100.5304    76.923879    88.824735    81.160609     1399.023 
   42600   -1798199.3    35462.884    35909.045   -76999.358   -355.03343      -314.23    89.896401    76.931334    88.833343    81.168474    1397.0646 
   42700   -1798196.9    36405.588    37276.647   -75537.021   -328.14871    511.34381    7.5787541    76.922484    88.823124    81.159137    1396.9513 
   42800   -1798185.2    39502.837     38809.79   -73996.874   -341.59683    132.49551    210.56549    76.907772    88.806136    81.143614    1399.0518 
   42900   -1798193.6    38573.247    40270.495   -73460.701    2.9459887    104.34956   -52.617252    76.903393     88.80108    81.138994    1407.4123 
   43000   -1798165.3    38749.263    38334.248    -74422.42   -455.19714    196.52792   -169.58195    76.914381    88.813768    81.150587    1409.7628 
   43100   -1798185.8    35459.583    36346.052   -76236.973   -444.05133    636.54365   -113.60388    76.930904    88.832847     81.16802    1403.7289 
   43200   -1798244.3    34969.191    35090.092   -76739.375   -291.75825    401.18218   -168.32877    76.935359     88.83799     81.17272    1403.4206 
   43300   -1798163.3    36770.182    37949.472   -74847.147    278.47485    357.98991     209.8531    76.921466    88.821948    81.158062    1392.7005 
   43400   -1798244.2    37813.903    38567.965   -73575.672   -413.62363    333.89373   -29.626374    76.903944    88.801715    81.139575    1405.8135 
   43500   -1798230.1    40014.917    39235.514   -73129.191   -35.844251    -373.2249    243.42203    76.899188    88.796224    81.134557    1405.2793 
   43600   -1798222.5    38575.559     38571.64   -74689.638    240.04805    276.85566    518.80496    76.911878    88.810877    81.147946    1401.4708 
   43700   -1798200.8    35525.228    36318.474   -76601.053   -42.315017   -116.74618   -191.87956    76.929347    88.831049    81.166378    1393.5141 
   43800   -1798253.7    35373.275    35454.443   -77117.951   -943.32117    357.84709   -269.28887    76.934009    88.836432    81.171296    1400.8213 
   43900   -1798172.3    37668.883    36467.343   -76283.491   -37.502532    -382.3293    309.22382    76.921554     88.82205    81.158155     1400.275 
   44000   -1798175.5    39348.305    38583.602   -74292.329   -8.8654661   -41.696103    124.83871    76.906245    88.804373    81.142003    1404.7571 
   44100   -1798243.7    38784.063    39765.944   -74428.354   -894.58918    303.98501    -493.7914    76.902701    88.800281    81.138264     1408.529 
   44200   -1798226.9    37833.955    37614.866   -75735.711   -289.55934    -146.3603   -164.36361    76.911869    88.810867    81.147937    1401.2169 
   44300   -1798198.6    36182.303    37637.864    -75781.92   -108.91901    512.76312    -642.5089    76.924751    88.825742    81.161528    1396.7927 
   44400   -1798217.1    35678.858    36818.096   -76674.771    120.90344    120.78866    -44.97802    76.929929    88.831721    81.166992    1401.3164 
   44500   -1798178.1    37093.867    36763.835   -75930.548    -520.0847    304.14745   -161.20494    76.921369    88.821837     81.15796    1401.5344 
   44600   -1798145.6    39685.286    38107.137   -73894.527    232.44616   -573.48335   -324.92235    76.909266    88.807861     81.14519    1408.0128 
   44700   -1798086.7    38069.885    39918.212   -73299.296    240.67084    872.47285   -18.229846    76.907281    88.805569    81.143096    1396.4953 
   44800   -1798195.3    37960.541    38208.976   -74332.562   -339.72926     40.80366    -132.6463      76.9159    88.815521     81.15219    1399.7599 
   44900   -1798189.1     37267.22    35450.907   -76287.235    83.915702   -657.01367    267.59893    76.926014    88.827201    81.162861    1396.5204 
   45000   -1798234.7    36544.264     36776.06    -75879.33   -104.82309    186.87059    550.86993    76.925791    88.826943    81.162626    1402.6107 
   45100   -1798251.7    36528.637    36998.533   -75636.027    368.17934    61.432429     265.4933    76.917994    88.817939    81.154399    1407.7443 
   45200   -1798175.2    38944.917    38315.766   -73740.623   -80.210975    -782.6673   -325.17073    76.909988    88.808695    81.145953    1401.9794 
   45300   -1798155.9    38534.118    38532.941   -73952.096   -356.24452   -50.292702   -210.35637    76.910287     88.80904    81.146268    1400.2177 
   45400   -1798224.7    36688.097    37357.041   -75183.551    533.23571    308.69517   -259.33679    76.917155    88.816971    81.153514     1399.651 
   45500     -1798201    37331.837    35680.305     -76359.6   -757.05938   -526.11312   -729.38313    76.922778    88.823464    81.159447    1391.0159 
   45600   -1798194.2    37998.389    36973.499   -75810.559    6.1554107   -67.070353    134.04751     76.92047    88.820798    81.157011    1393.2416 
   45700   -1798176.1    38057.997     38210.04   -75161.547    522.95254   -33.340184    397.18243    76.914607    88.814029    81.150826    1400.4886 
   45800   -1798180.8    38571.863    38029.899   -75342.423   -558.26742   -526.88406    142.21246    76.911714    88.810687    81.147773    1403.5709 
   45900   -1798198.6    39157.102    37240.054   -74469.284   -477.25152    11.616385   -246.06782    76.914369    88.813754    81.150575     1402.585 
   46000   -1798232.8    37306.053    37660.416   -76076.531   -273.30352   -194.15606   -421.30278    76.920111    88.820383    81.156632    1401.7846 
   46100   -1798185.3    36912.157    36899.109   -75716.821   -424.06169   -142.84573   -226.86609    76.922909    88.823614    81.159584    1391.0991 
   46200   -1798217.8    38182.132    37312.458   -75746.539    -77.61745   -47.382992   -195.28619    76.918791    88.818859     81.15524    1397.2828 
   46300   -1798168.9    38583.203    37928.072   -74716.366   -583.93487   -215.76787   -269.75848    76.911922    88.810927    81.147992    1402.7435 
   46400   -1798128.3    38573.728    38773.813    -73801.67   -160.57392   -496.61601   -332.00146    76.910669    88.809481     81.14667    1398.8229 
   46500     -1798206    37871.262    38339.962    -75299.34   -339.57173    256.97382   -924.23156    76.916857    88.816626      81.1532    1400.8996 
   46600   -1798263.6    37732.015    35516.145    -76394.97    24.998151   -1222.3719   -320.52175    76.923881    88.824737     81.16061    1403.7062 
   46700   -1798234.3    36399.611    36794.075    -76526.61   -109.20073    558.67648   -307.81725    76.924025    88.824903    81.160762      1400.91 
   46800   -1798183.3    36812.003    38669.911   -75496.116   -404.44419    357.19335   -105.39143    76.916714    88.816461    81.153048    1396.9023 
   46900     -1798187    38242.825    39229.331   -74038.686    435.94834    872.52593   -8.9849945    76.910281    88.809033    81.146262    1399.3666 
   47000   -1798199.2    38755.954    37874.915   -73810.468   -89.271535   -292.05167   -124.53265    76.911023     88.80989    81.147044    1399.1051 
   47100     -1798223    37036.419    37366.079   -74896.373   -158.75768    374.20598    -393.0319    76.917383    88.817234    81.153755    1394.0486 
   47200   -1798246.8    36224.568    37241.411   -75809.388   -90.089057   -78.317296   -124.18449    76.922034    88.822604    81.158662    1394.6797 
   47300   -1798193.3    38064.277    37287.402   -74936.867   -112.34573    86.237745   -270.42987    76.920731    88.821099    81.157287    1396.1118 
   47400   -1798223.6    37540.217    37739.806   -75373.223     119.9274   -380.06037   -253.59998    76.917892    88.817822    81.154292    1407.4131 
   47500   -1798198.1    37978.706     38485.72   -75868.281     228.8199    59.248181   -137.40999    76.916006    88.815643    81.152301    1403.1191 
   47600   -1798198.6    38053.708    38293.175   -75025.957    154.89275    136.38306    -287.0286    76.917151    88.816966     81.15351    1397.8172 
   47700   -1798265.8    37034.375    37209.613   -75441.873    458.31131    359.02053    260.57148    76.919369    88.819528     81.15585     1396.782 
   47800   -1798288.6    36734.198    36725.855   -75467.312    141.56603    234.98504    298.86629    76.917024    88.816819    81.153375     1390.715 
   47900   -1798251.8    36945.531    39045.109   -75016.884   -5.6999457    66.489211   -502.73115     76.91079    88.809621    81.146798     1396.056 
   48000   -1798223.7    38784.141    38379.469   -73802.998    92.682167    458.35218   -41.655976     76.90728    88.805567    81.143095    1398.7813 
   48100   -1798221.2    38239.437    38422.918    -74070.97    276.93726   -219.38337   -408.02453    76.911232    88.810131    81.147265    1402.1282 
   48200   -1798207.3    37112.293    37646.566   -74781.705    -164.8355   -340.43582   -228.13648    76.920943    88.821344     81.15751    1403.3636 
   48300   -1798211.9    36595.298    35687.994   -75937.138    91.310464   -151.05311    310.97444     76.92883    88.830452    81.165832    1405.2792 
   48400   -1798244.6    35988.658    36326.941   -76021.515   -430.44867    349.98384   -62.669225    76.927057    88.828404    81.163961    1407.6862 
   48500   -1798203.2    37006.599    38137.487   -74884.752    81.007722    338.80084   -361.64907    76.915893    88.815514    81.152183     1394.978 
   48600   -1798268.1    38824.545    38287.084   -74054.579   -194.62079    72.239679   -421.11423    76.904456    88.802307    81.140115    1397.2432 
   48700   -1798249.9    39512.214    37907.554   -73057.224   -970.39716   -42.038037   -466.25598    76.902623     88.80019    81.138181    1395.4955 
   48800   -1798218.2    38186.702    38073.506    -74085.67   -436.01856    -270.5413   -14.272517    76.913139    88.812334    81.149277    1404.8147 
   48900   -1798197.5    36774.842    36042.422   -75482.239     342.4009   -423.70069   -473.00469    76.929193    88.830871    81.166215    1405.7211 
   49000   -1798177.4     35448.47    34934.601   -76736.031   -538.75349   -291.54694   -367.04003    76.936479    88.839284    81.173902    1400.6401 
   49100   -1798246.4    36613.686    36099.857   -75494.427    33.328425   -2.8427033   -85.236161      76.9247    88.825683    81.161474    1401.9545 
   49200     -1798234    38794.829    38418.041   -73173.926   -73.428156   -73.607241   -678.32482    76.903359     88.80104    81.138958    1391.7422 
   49300   -1798266.3    40013.627    40046.768   -72954.539    25.666894   -162.19747   -196.05903    76.892691    88.788721    81.127702    1396.1877 
   49400   -1798212.5    40389.605    38409.276   -72828.822   -432.67531   -923.61178    128.99965    76.903131    88.800777    81.138718    1404.9528 
   49500   -1798148.1     36743.86    35811.799   -75191.359    1.0856918   -204.31532    360.16744    76.928453    88.830016    81.165434    1399.2052 
   49600   -1798155.2    34932.973    33732.458   -77491.177    -45.33499   -139.81761   -133.73205    76.945048    88.849179    81.182943    1396.7421 
   49700   -1798191.4    35367.449     35843.34   -76428.411   -728.92935    95.115582    1092.4545    76.935945    88.838667    81.173338    1395.6021 
   49800   -1798244.4    38511.757    37407.565    -75055.89    210.52429   -445.74937    314.52974    76.910377    88.809144    81.146362    1397.6713 
   49900   -1798293.7    40442.119    40327.736   -72294.197    300.32788   -13.126304   -458.77726    76.891301    88.787116    81.126236    1401.2426 
   50000   -1798228.7    39277.347    40340.739   -72993.279    236.10776    252.10794    352.01181    76.895974    88.792512    81.131166    1393.1138 
   50083     -1798187    37751.854    37110.062   -74568.649    40.908714    123.87454    -267.1287    76.914057    88.813394    81.150246    1394.4985 
Loop time of 6405.95 on 15 procs for 50000 steps with 58365 atoms

Pair  time (%) = 4351.18 (67.9241)
Kspce time (%) = 1287.46 (20.0978)
Neigh time (%) = 58.1856 (0.908305)
Comm  time (%) = 69.5683 (1.08599)
Outpt time (%) = 0.225074 (0.00351352)
Other time (%) = 639.333 (9.9803)

Nlocal:    3891 ave 3923 max 3838 min
Histogram: 2 1 0 0 0 2 3 1 4 2
Nghost:    18580.4 ave 18689 max 18454 min
Histogram: 2 4 0 0 0 0 0 5 1 3
Neighs:    1.50384e+06 ave 1.5489e+06 max 1.46176e+06 min
Histogram: 2 0 3 2 0 3 2 0 1 2

Total # of neighbors = 22557531
Ave neighs/atom = 386.491
Neighbor list builds = 949
Dangerous builds = 0

unfix   1
fix          2 all nvt temp ${mytemp} ${mytemp} 0.01
fix          2 all nvt temp 1400 ${mytemp} 0.01
fix          2 all nvt temp 1400 1400 0.01
run      50000
PPPM initialization ...
  G vector (1/distance) = 0.309148
  grid = 72 80 75
  stencil order = 5
  estimated absolute RMS force accuracy = 0.00177248
  estimated relative force accuracy = 0.000123092
  using double precision FFTs
  3d grid and FFT values/proc = 58144 28800
Memory usage per processor = 10.2492 Mbytes
Step PotEng Pxx Pyy Pzz Pxy Pxz Pyz Lx Ly Lz Temp 
   50083   -1798187.2    37757.005     37115.21   -74586.153    40.947348    123.90593   -267.13685    76.914057    88.813394    81.150246    1394.4985 
   50100   -1798141.9    37855.188    37539.367   -74264.146   -469.73544    257.05089   -377.74756    76.914057    88.813394    81.150246    1397.9039 
   50200   -1798209.5    38525.522    37912.593   -74633.745   -108.01234   -83.184374    170.84816    76.914057    88.813394    81.150246    1395.0898 
   50300   -1798175.3    37308.402     38227.93   -74031.737   -18.753437   -54.507329   -10.659952    76.914057    88.813394    81.150246    1398.1305 
   50400   -1798193.5    37678.385    38344.836   -74565.117   -545.95632    238.21545     77.50761    76.914057    88.813394    81.150246    1400.4105 
   50500   -1798221.3    38012.216    37354.404   -74355.683   -336.91864    495.47405    375.14363    76.914057    88.813394    81.150246    1405.1558 
   50600     -1798235    37390.019    37546.837   -74506.238     -137.228    518.68386    494.31186    76.914057    88.813394    81.150246    1394.6527 
   50700     -1798203    36982.009    38348.562   -73837.737   -203.65241    444.96845   -77.163658    76.914057    88.813394    81.150246     1397.164 
   50800   -1798245.6     37654.25     37046.25   -74633.037    69.353242   -256.39312    12.856013    76.914057    88.813394    81.150246    1398.8783 
   50900   -1798249.5    37221.756    37424.444   -74570.717    -332.0846   -84.381387   -120.41082    76.914057    88.813394    81.150246    1393.0717 
   51000   -1798247.5    37909.591    37407.545   -74416.571    484.02967    103.18017    269.84956    76.914057    88.813394    81.150246    1398.0571 
   51100   -1798229.8    37686.043    37259.409   -74898.407    101.76538   -243.14604    237.99988    76.914057    88.813394    81.150246    1397.8373 
   51200   -1798239.9    38364.132    37136.909   -74395.594   -217.53399   -147.83037   -39.144846    76.914057    88.813394    81.150246    1393.4932 
   51300   -1798195.5    38536.601    38290.405   -74273.785   -136.69897    428.54971    -17.67891    76.914057    88.813394    81.150246    1400.3764 
   51400   -1798195.7    37913.534    38522.194   -74477.399    389.87448    184.81784    -77.99551    76.914057    88.813394    81.150246    1401.6365 
   51500   -1798205.3    37834.901    37957.606   -74934.408   -51.205197   -111.76898   -280.58029    76.914057    88.813394    81.150246    1400.0011 
   51600   -1798231.3    37816.101    37346.043   -75513.387    -39.82749   -309.94788    230.63424    76.914057    88.813394    81.150246    1394.6212 
   51700   -1798181.2    38042.529    38465.036   -74882.471    144.22392    12.081774   -306.07576    76.914057    88.813394    81.150246    1396.4704 
   51800   -1798207.9    37828.904    37914.007   -75155.966   -465.77059    227.72835   -364.10178    76.914057    88.813394    81.150246    1390.1041 
   51900   -1798170.6     38200.96    37767.018   -74387.546    119.96295   -217.00563    45.874774    76.914057    88.813394    81.150246    1407.6621 
   52000   -1798183.2    38642.265    37345.324   -74382.656     478.6128   -105.84038    727.09571    76.914057    88.813394    81.150246    1393.7317 
   52100   -1798156.9    37956.603    38117.847   -74215.607   -144.16339      304.276   -67.710915    76.914057    88.813394    81.150246    1408.6163 
   52200   -1798197.7     38106.15    37600.161   -74999.052   -316.28604   -522.64571    -317.3953    76.914057    88.813394    81.150246    1397.2861 
   52300   -1798235.6    38387.053    36881.964   -75136.393    -43.79643     44.60817    647.72664    76.914057    88.813394    81.150246    1399.3869 
   52400   -1798215.2    38132.384    37200.444   -74623.191   -148.68558   -408.01417    152.59473    76.914057    88.813394    81.150246     1398.319 
   52500   -1798173.7    38027.215    38190.299   -73884.971   -823.05677   -408.81975   -235.48514    76.914057    88.813394    81.150246    1399.3456 
   52600   -1798202.1      38787.4    37993.853   -74898.096   -25.592256    36.932109    348.18118    76.914057    88.813394    81.150246    1397.3104 
   52700   -1798201.4    38759.494    37245.018   -75174.446    139.28205   -248.11574    733.30517    76.914057    88.813394    81.150246    1398.4626 
   52800   -1798226.1    37776.279    37490.756   -74951.973   -333.85916   -299.07309    680.59056    76.914057    88.813394    81.150246    1401.1108 
   52900   -1798236.8    37845.858    37834.872   -74998.479    -640.1357   -430.69078    130.05404    76.914057    88.813394    81.150246    1397.0347 
   53000   -1798139.5    37981.166    38601.637   -75063.012   -118.21102   -615.80028    32.313575    76.914057    88.813394    81.150246    1394.1677 
   53100   -1798170.3    38542.377    36932.403   -74792.433   -230.24298   -330.75801    321.79102    76.914057    88.813394    81.150246    1399.2054 
   53200     -1798174    38608.062    38790.503   -75060.002     33.55693    47.522404     -154.653    76.914057    88.813394    81.150246    1398.9714 
   53300     -1798239    38310.002    37380.495   -75130.146    532.46839   -779.86094    807.88858    76.914057    88.813394    81.150246    1405.0518 
   53400   -1798278.2    37973.026     37139.83    -75352.49    284.55028    146.46022    313.88082    76.914057    88.813394    81.150246    1404.1013 
   53500   -1798213.4    38102.872    38075.455   -74980.322   -498.97078   -240.61117    136.80674    76.914057    88.813394    81.150246     1402.393 
   53600   -1798126.3    37854.003     38342.95   -74376.384    282.96317    331.72206    681.13952    76.914057    88.813394    81.150246    1398.7089 
   53700   -1798216.6    37927.753      36708.4    -74996.48    299.77088    36.269782    116.39763    76.914057    88.813394    81.150246     1394.244 
   53800   -1798192.1    37175.857    38013.699   -74952.405   -204.71017    47.031217     441.6899    76.914057    88.813394    81.150246    1392.0158 
   53900   -1798204.8    37960.248    37873.022    -74431.29    543.74097   -127.78292    548.76713    76.914057    88.813394    81.150246    1398.2678 
   54000     -1798190    38818.292    37543.955   -74841.679    358.79628    38.877763   -333.45192    76.914057    88.813394    81.150246    1391.9045 
   54100   -1798174.9      38522.9    37995.606   -74536.392   -650.66156   -104.58283     418.8373    76.914057    88.813394    81.150246    1392.5647 
   54200   -1798227.3    37496.637    37768.931   -74422.681    455.85302    728.96834    75.274343    76.914057    88.813394    81.150246    1393.5552 
   54300   -1798216.8    37768.218    37459.198   -74353.998    21.283582    70.349779   -275.84714    76.914057    88.813394    81.150246    1398.5682 
   54400   -1798223.3    37480.216    37641.884   -73886.007   -292.05976   -102.03136    188.18833    76.914057    88.813394    81.150246    1396.6448 
   54500   -1798150.2    38020.226    37872.919   -74217.432   -376.02747   -305.30494   -56.160795    76.914057    88.813394    81.150246    1403.9641 
   54600   -1798253.8    37898.893     37936.39   -74508.617    386.06338   -221.37431    327.85317    76.914057    88.813394    81.150246    1396.2264 
   54700   -1798237.3    37320.847    37568.681    -75034.13   -674.45484   -398.21568    84.826092    76.914057    88.813394    81.150246    1399.1853 
   54800   -1798252.6    37563.708    37727.176   -74258.389    338.56501   -112.26127   -21.731721    76.914057    88.813394    81.150246    1406.7706 
   54900   -1798174.6     38247.46    38100.042   -74057.059   -493.43108    226.08346   -60.846219    76.914057    88.813394    81.150246    1401.8924 
   55000   -1798184.9    38231.209    38465.292   -74509.639     445.1121   -314.51648    181.13475    76.914057    88.813394    81.150246    1395.3654 
   55100   -1798148.1    37685.919    37949.433   -74641.818     658.6053    236.34374    527.03262    76.914057    88.813394    81.150246    1395.9706 
   55200   -1798146.2    38419.049    38138.986   -73745.525   -33.645657    256.57903    36.798952    76.914057    88.813394    81.150246     1400.096 
   55300   -1798247.9     37369.01    37591.234   -74613.768     1130.311   -424.94711    133.53249    76.914057    88.813394    81.150246    1399.1009 
   55400   -1798281.2    37061.298    38078.059   -74915.699    175.66028   -4.5843532   -245.21148    76.914057    88.813394    81.150246    1400.5601 
   55500     -1798193    37816.664    37059.038   -73769.487   -189.15212   -141.69986     462.3722    76.914057    88.813394    81.150246    1404.5019 
   55600   -1798243.6    37564.433    36839.557   -74374.061    536.40521   -23.302707    394.58808    76.914057    88.813394    81.150246    1395.2947 
   55700   -1798178.2    37454.071    36983.962   -74531.422     675.3826   -414.43483    117.98328    76.914057    88.813394    81.150246    1395.0723 
   55800   -1798147.2    38125.248    37810.248   -73456.119   -30.237429    156.07031    472.95915    76.914057    88.813394    81.150246    1397.2606 
   55900     -1798230    38020.028    36828.818   -74546.949   -473.21164    119.56965      15.5587    76.914057    88.813394    81.150246    1396.8655 
   56000   -1798255.3    37302.107    37379.899   -74295.344     537.0935    -2.833108    168.88324    76.914057    88.813394    81.150246    1404.8438 
   56100   -1798224.8    37346.914    36933.973   -74407.364    697.00406   -147.78274    91.022014    76.914057    88.813394    81.150246    1397.1556 
   56200   -1798187.1    38508.677    37656.278   -73565.765    153.84394   -331.58474    59.940375    76.914057    88.813394    81.150246    1399.2378 
   56300   -1798248.9    37604.512    37433.593   -74841.539   -279.76877   -297.28287    736.96331    76.914057    88.813394    81.150246    1397.9494 
   56400   -1798212.1    38179.072    38380.254   -74151.668    127.13854    48.316501    163.26339    76.914057    88.813394    81.150246    1403.2878 
   56500   -1798237.8    37720.411    37241.509   -75176.581    550.13445     97.43086    671.78727    76.914057    88.813394    81.150246    1392.4984 
   56600     -1798251    36727.399    38203.174   -74806.589   -353.04968   -56.199077    59.550122    76.914057    88.813394    81.150246    1391.6322 
   56700   -1798267.8    37398.995    37833.341   -75545.075    995.97429    20.833434    498.20854    76.914057    88.813394    81.150246    1390.5626 
   56800   -1798223.4    38455.536    38322.787   -75618.523     24.48189   -166.39745    173.58344    76.914057    88.813394    81.150246    1399.4172 
   56900   -1798193.1    37353.776    37913.909    -75638.46   -596.39299    53.113037    89.927943    76.914057    88.813394    81.150246    1403.7339 
   57000   -1798206.3    37328.448    38199.075   -75255.719    313.12386    7.8369282    306.80209    76.914057    88.813394    81.150246    1397.6415 
   57100   -1798172.5    38830.691    37671.907   -74878.195   -60.161607    -83.61804    230.84014    76.914057    88.813394    81.150246     1396.981 
   57200   -1798199.7     38767.53    38049.665   -75287.977   -418.05589    48.901854   -125.78094    76.914057    88.813394    81.150246    1401.2756 
   57300   -1798246.4    37732.164    38040.761   -75245.499   -716.81111   -398.63751   -748.30754    76.914057    88.813394    81.150246      1401.77 
   57400   -1798201.3    38097.306    37995.581   -75850.059     221.7837   -276.94681    657.62158    76.914057    88.813394    81.150246    1396.4625 
   57500   -1798262.8    39209.605     36727.04   -75049.634   -291.31838    -328.7239   -389.27656    76.914057    88.813394    81.150246    1395.1821 
   57600     -1798256    36694.413     37497.42   -75037.606   -940.64992   -10.440544   -359.54658    76.914057    88.813394    81.150246    1398.8682 
   57700   -1798230.1    37922.422    38377.227   -74263.442    496.84261   -345.32442    374.12229    76.914057    88.813394    81.150246    1412.2784 
   57800   -1798218.9    38968.049    37582.222   -74686.692   -146.69006   -732.95577    82.334389    76.914057    88.813394    81.150246    1409.0958 
   57900   -1798209.9    37465.788    37889.847   -74357.629   -418.05329   -829.40299    -273.4483    76.914057    88.813394    81.150246    1399.9192 
   58000   -1798203.3    37650.054    37948.962   -75017.504   -159.13775   -353.14958    -316.3865    76.914057    88.813394    81.150246    1396.6775 
   58100   -1798201.3      37558.6    38330.606   -74502.863   -92.823862   -560.41731    289.10244    76.914057    88.813394    81.150246     1395.167 
   58200     -1798213    38165.056    37825.285    -74257.31   -402.83994   -419.09001    230.21053    76.914057    88.813394    81.150246    1400.5668 
   58300   -1798180.5    37724.858    38609.619   -74061.949   -500.58797     136.7146   -81.226983    76.914057    88.813394    81.150246    1411.7772 
   58400   -1798193.5    37673.182    37865.387   -74500.436    86.185247    118.62327   -177.72459    76.914057    88.813394    81.150246     1400.881 
   58500   -1798210.9    38024.716    37354.876   -74860.026    547.99957    418.05425    688.27918    76.914057    88.813394    81.150246    1397.4374 
   58600   -1798214.6    37527.034    38106.705   -74505.925   -489.35935   -53.480331   -73.277774    76.914057    88.813394    81.150246    1414.7338 
   58700   -1798220.5    38147.359    37744.388   -74476.308   -28.569281    405.44532   -360.06607    76.914057    88.813394    81.150246    1402.6988 
   58800   -1798238.8     38270.12    37902.296   -74850.223    310.27188   -233.62963    322.72252    76.914057    88.813394    81.150246    1402.8556 
   58900   -1798174.6      38027.1    37478.832   -74837.279    235.69794   -218.95504    606.33635    76.914057    88.813394    81.150246    1402.8404 
   59000   -1798215.9    37362.944    37873.184   -74491.723    361.86894    167.32005    306.99922    76.914057    88.813394    81.150246    1402.5528 
   59100   -1798159.4    38469.428    38335.992   -75167.295   -102.43401   -577.90276   -205.20234    76.914057    88.813394    81.150246    1406.6652 
   59200   -1798219.3    38006.928    38173.897   -75477.766    758.15527    872.65889    458.73164    76.914057    88.813394    81.150246    1400.9466 
   59300   -1798122.4    38268.492    38668.406   -75560.337     146.1372   -122.49644    157.61458    76.914057    88.813394    81.150246    1393.9838 
   59400   -1798225.7    38207.107    37783.151   -76013.346   -166.94507    224.06769   -136.46469    76.914057    88.813394    81.150246     1397.618 
   59500   -1798244.7    37471.252    37484.121    -75290.33    377.19748    528.62843   -351.27684    76.914057    88.813394    81.150246    1397.6446 
   59600   -1798215.6    37680.264    38877.278   -75030.549    230.19635    702.97997   -632.32599    76.914057    88.813394    81.150246    1408.0058 
   59700     -1798290    37385.926     38435.22     -75520.9    323.63843    258.43016    341.74369    76.914057    88.813394    81.150246    1402.4659 
   59800   -1798299.7    36879.151    37470.601   -75848.624    666.52646    378.80959   -283.96315    76.914057    88.813394    81.150246    1397.6154 
   59900   -1798199.4    37697.864    38163.998   -74447.081    210.98123    325.27645   -39.014985    76.914057    88.813394    81.150246    1402.6606 
   60000     -1798152    36696.803    38240.716   -74603.855    212.53783     403.9733   -30.501252    76.914057    88.813394    81.150246    1398.3712 
   60100   -1798144.4    37785.023    38528.329   -74232.587    45.715618    22.813926   -489.61594    76.914057    88.813394    81.150246    1401.4216 
   60200   -1798189.9    37814.752    37223.507   -74510.504   -671.45264    19.779846   -499.99396    76.914057    88.813394    81.150246    1388.4203 
   60300   -1798227.1    37481.401    37505.171   -74680.926    510.94793   -256.29683    305.23021    76.914057    88.813394    81.150246    1402.8821 
   60400   -1798270.7    36677.704    37829.924   -74801.919    76.749815    303.58512     794.7517    76.914057    88.813394    81.150246    1397.0555 
   60500   -1798194.9     38731.87    37179.583   -74436.646   -210.51362   -587.35289   -429.25545    76.914057    88.813394    81.150246    1407.6934 
   60600     -1798233    38789.364    37007.995   -73991.992   -295.09355   -859.83303   -319.14926    76.914057    88.813394    81.150246    1402.4296 
   60700   -1798203.4     38356.11    37563.795   -74392.586    633.41842      269.381     279.1587    76.914057    88.813394    81.150246    1399.9094 
   60800   -1798173.3    38131.414    37668.684   -74323.591    176.84399    42.266962    -505.4693    76.914057    88.813394    81.150246    1394.5831 
   60900   -1798236.6    37675.427    37569.913   -74335.542    -946.3848   -216.87738   -515.58992    76.914057    88.813394    81.150246    1402.6415 
   61000   -1798272.6    37659.279    37705.634   -75020.691   -166.32466    302.57624   -115.26891    76.914057    88.813394    81.150246    1406.5752 
   61100   -1798243.3    36983.258    37989.851   -74085.886   -519.13671    657.88222    -410.5402    76.914057    88.813394    81.150246    1400.9639 
   61200   -1798161.4    37896.674    37310.284   -74007.222   -95.264645   -54.823165   -642.71927    76.914057    88.813394    81.150246    1397.1828 
   61300   -1798258.8     37415.34    37391.345   -74747.117   -513.35822   -172.72549   -686.56196    76.914057    88.813394    81.150246     1400.568 
   61400   -1798222.5    37133.584     37609.71   -74483.003    234.38547    130.08146    274.79333    76.914057    88.813394    81.150246    1390.1686 
   61500   -1798275.9    37007.791    37712.886   -75255.695   -256.66038    159.72536   -495.33835    76.914057    88.813394    81.150246    1397.3184 
   61600   -1798223.3    37864.435    37675.713   -75358.813   -473.57692    540.25047   -616.64554    76.914057    88.813394    81.150246    1393.1302 
   61700   -1798137.6     37725.84    38699.211   -74589.536    354.50103    34.427734   -485.22209    76.914057    88.813394    81.150246    1396.5688 
   61800   -1798206.2    37232.835    37764.576   -74632.758    389.45429    7.9602339    -509.4762    76.914057    88.813394    81.150246    1403.3819 
   61900   -1798222.5    37821.291    36946.828   -74803.275   -398.54015   -329.69402   -135.04983    76.914057    88.813394    81.150246    1398.5672 
   62000   -1798215.4    37375.679    37449.636   -74097.795   -426.02095    201.48389      528.125    76.914057    88.813394    81.150246    1401.5014 
   62100   -1798249.3    37240.272    37297.343   -73956.659    719.15696    269.73929    510.86322    76.914057    88.813394    81.150246    1401.7382 
   62200   -1798210.3    37648.383    38029.529   -74243.063    657.29615   -347.76828    432.57511    76.914057    88.813394    81.150246    1404.4895 
   62300   -1798190.2     37495.43    37959.347   -73652.284    53.045072   -320.63249   -343.53857    76.914057    88.813394    81.150246    1402.5417 
   62400   -1798158.3     38133.28    37770.915   -74490.837   -116.21513    172.11314   -272.84766    76.914057    88.813394    81.150246    1393.6924 
   62500   -1798119.4    37256.083    39689.856   -73589.854     635.7526    263.88875   -266.14614    76.914057    88.813394    81.150246    1400.7834 
   62600   -1798179.6    38074.432    38636.632    -74942.55   -2.1808976   -102.48931   -293.46844    76.914057    88.813394    81.150246    1406.0896 
   62700   -1798206.4    38352.515     37726.92   -74771.553   -631.83735    88.084728   -237.23462    76.914057    88.813394    81.150246    1396.9147 
   62800   -1798249.1    36917.949    38088.976   -74840.625    807.26101    235.54274    242.54551    76.914057    88.813394    81.150246     1399.156 
   62900   -1798232.3     37433.46     37656.68    -74684.04    143.17251   -164.81949     127.6777    76.914057    88.813394    81.150246     1394.547 
   63000   -1798187.9    38879.256    37511.012   -74593.441   -225.76752    51.360884    231.19683    76.914057    88.813394    81.150246    1406.3462 
   63100   -1798184.3    37380.159    38131.139   -74485.651    122.23233    387.99491    887.94396    76.914057    88.813394    81.150246    1399.2487 
   63200   -1798149.7    37590.413     38617.76   -74618.613    392.28914    387.75452    192.31596    76.914057    88.813394    81.150246    1405.8637 
   63300   -1798212.6    37980.249    38008.568   -74795.227   -576.43462    74.614604   -625.51504    76.914057    88.813394    81.150246    1408.9221 
   63400   -1798211.5    38264.084    37490.745   -74097.209   -30.020194   -497.35707    -128.1393    76.914057    88.813394    81.150246    1398.3884 
   63500     -1798182    37829.322     38115.83   -74107.669    457.09435   -45.178037   -168.05594    76.914057    88.813394    81.150246    1399.0321 
   63600   -1798235.7    37499.408    37472.771   -74708.822    245.44149   -233.08458    40.746075    76.914057    88.813394    81.150246    1400.5054 
   63700   -1798178.9    38199.835    36984.585   -74637.927    -562.2689   -54.705546   -31.019239    76.914057    88.813394    81.150246    1396.2609 
   63800   -1798254.1    37947.835     37912.39   -74646.569   -392.49623    514.08531    -872.2033    76.914057    88.813394    81.150246    1392.5267 
   63900   -1798166.2    37514.541    38171.619   -74179.469   -809.59757   -461.30291   -581.98009    76.914057    88.813394    81.150246     1400.777 
   64000   -1798167.9    38057.008     38028.29    -74099.02   -154.22026    132.77642   -363.44163    76.914057    88.813394    81.150246     1405.483 
   64100   -1798269.6    38032.229    37026.423   -74889.148   -411.41366   -178.38145    77.816716    76.914057    88.813394    81.150246    1401.0086 
   64200   -1798250.1    37252.466    38519.288   -75059.993      121.401    446.37853   -256.63146    76.914057    88.813394    81.150246    1400.3206 
   64300   -1798189.8    37773.586    38573.902    -74814.62   -47.008041   -381.17803   -273.93753    76.914057    88.813394    81.150246    1400.4458 
   64400     -1798253    37557.446    37797.896   -75522.547    150.56342   -293.47852   -234.85061    76.914057    88.813394    81.150246    1391.6639 
   64500     -1798189    37459.803    38094.546    -75415.99   -58.603492   -367.98874      26.3791    76.914057    88.813394    81.150246    1400.4548 
   64600   -1798260.2     37760.92     37928.23    -75453.19    40.846448   -62.485637   -548.42002    76.914057    88.813394    81.150246    1403.0511 
   64700   -1798184.2    38260.852    37953.637   -74968.734    243.81715   -604.00652   -46.859738    76.914057    88.813394    81.150246    1399.0249 
   64800   -1798146.2    38437.892     38801.35   -74277.578   -340.93108    13.393494    573.03158    76.914057    88.813394    81.150246    1404.3477 
   64900   -1798248.3    37139.592    38041.802   -74294.463   -100.19574     162.1022     106.7125    76.914057    88.813394    81.150246    1396.0985 
   65000   -1798160.1    38968.421    38248.893   -73732.944    504.59821   -381.30514    506.42986    76.914057    88.813394    81.150246    1403.3104 
   65100   -1798196.8    38000.738    37908.266    -73600.35    -620.3381   -289.20573   -142.71204    76.914057    88.813394    81.150246    1409.9117 
   65200   -1798267.9    37629.396    37525.449   -74488.669   -434.15666   -481.54945   -538.17824    76.914057    88.813394    81.150246    1400.3602 
   65300     -1798214    38017.468    37835.159   -74321.005    625.68036   -186.41406    39.812806    76.914057    88.813394    81.150246    1396.7529 
   65400   -1798176.1    38082.536      37813.6   -74447.652    296.73448   -3.0793544   -600.98348    76.914057    88.813394    81.150246    1399.5234 
   65500   -1798245.3    36865.851    38746.899   -74923.715   -163.39653   -527.50825   -440.56055    76.914057    88.813394    81.150246    1396.0293 
   65600   -1798249.2    38275.806    37343.288   -75046.463   -609.35685   -303.34742   -555.79869    76.914057    88.813394    81.150246    1394.4884 
   65700   -1798247.6    37681.652    38429.849   -75459.883    301.52818   -504.74018   -468.94179    76.914057    88.813394    81.150246    1406.6068 
   65800   -1798267.9    37684.443     36788.67   -75638.796   -605.27335    -182.9069   -414.75592    76.914057    88.813394    81.150246    1400.5598 
   65900     -1798229    37876.812    37329.382   -75117.329   -1145.8425   -837.75069   -1116.7227    76.914057    88.813394    81.150246    1396.6718 
   66000   -1798240.5    37982.978    36902.047   -74310.799   -426.58295   -91.854036   -546.54713    76.914057    88.813394    81.150246    1396.0642 
   66100   -1798218.5    37804.539    37505.356   -74073.976   -104.06845   -759.11597    42.779899    76.914057    88.813394    81.150246    1399.3521 
   66200   -1798229.5    38095.047    37029.725   -74423.152   -127.38128   -929.98877   -389.17156    76.914057    88.813394    81.150246    1406.5662 
   66300   -1798247.9    37913.919    37735.403   -74582.784   -157.11607   -399.92006   -71.090846    76.914057    88.813394    81.150246    1384.8375 
   66400   -1798239.8    37907.251    37191.946   -75726.285    595.21134   -308.06296    394.84603    76.914057    88.813394    81.150246    1395.6114 
   66500   -1798239.9    38401.511    37878.366   -75672.718    -483.8582   -8.3586916   -62.861234    76.914057    88.813394    81.150246    1397.9475 
   66600   -1798203.1    39156.515    38070.163   -74981.858    427.79491   -758.92485   -56.767682    76.914057    88.813394    81.150246    1398.7976 
   66700     -1798195    38366.236    38177.374   -74529.484   -581.54882   -56.191906   -1.3962604    76.914057    88.813394    81.150246    1401.4811 
   66800   -1798158.1    38035.463    37772.782    -74382.79    25.717428    78.293618   -102.14619    76.914057    88.813394    81.150246    1403.6208 
   66900   -1798267.8    38210.681     36975.35   -74865.554    -267.6221    128.49952    39.209045    76.914057    88.813394    81.150246    1394.9868 
   67000   -1798250.7     37615.48      37222.2    -75373.36   -390.65433    137.64843   -73.372732    76.914057    88.813394    81.150246     1395.056 
   67100   -1798316.1    37592.224     37688.81   -75298.356   -430.47729    505.78511    -255.2298    76.914057    88.813394    81.150246    1407.6434 
   67200   -1798214.8    38203.646    38286.882   -74972.331   -590.67843    -1.899252   -290.39995    76.914057    88.813394    81.150246    1403.9289 
   67300   -1798256.9    37736.566    37185.293   -75013.534   -320.69752    350.83398   -250.59805    76.914057    88.813394    81.150246    1404.2809 
   67400   -1798218.6    37365.368    37306.886    -74697.39   -203.07315   -60.536843    -480.9717    76.914057    88.813394    81.150246    1403.2686 
   67500     -1798266    37203.437    37224.217   -75351.019    96.721952   -32.586383    198.52553    76.914057    88.813394    81.150246    1395.5638 
   67600   -1798215.8    38603.233    37428.413   -74846.905   -11.799501   -446.43404    105.25085    76.914057    88.813394    81.150246    1396.1738 
   67700   -1798234.5    38158.064    37581.851   -75125.902    262.90622   -251.54857   -107.53739    76.914057    88.813394    81.150246    1392.8532 
   67800     -1798249    37977.247    37656.455   -74885.793    139.16157   -494.56426   -155.34023    76.914057    88.813394    81.150246    1403.1526 
   67900   -1798189.9    38763.686    38175.319   -75366.078    182.02146    254.23477    81.368185    76.914057    88.813394    81.150246    1395.9457 
   68000   -1798258.5    37761.107    38018.092   -75210.245    378.24795   -106.16097   -474.25887    76.914057    88.813394    81.150246    1387.5214 
   68100   -1798257.5    37441.434    37162.447   -75494.555   -177.90797    407.82431   -676.81024    76.914057    88.813394    81.150246    1394.8303 
   68200   -1798237.3    38352.306     36919.47   -74902.943    -457.9503   -162.50181   -585.18057    76.914057    88.813394    81.150246    1398.9391 
   68300   -1798288.5    37325.165    38031.234   -75012.653    148.29199   -114.64589      335.266    76.914057    88.813394    81.150246    1399.5031 
   68400   -1798240.5    38977.765    37342.619   -75159.842   -237.98148   -222.89285     -579.558    76.914057    88.813394    81.150246    1397.4161 
   68500   -1798244.6    37347.979    38431.014   -74982.745   -226.15867    371.16697    231.82901    76.914057    88.813394    81.150246    1408.1351 
   68600   -1798193.5    38472.098    38074.324   -74942.853    557.65107    322.56317    456.50546    76.914057    88.813394    81.150246    1402.9977 
   68700   -1798233.8    38472.104    37787.068   -75243.945    178.47086    188.86636   -491.08761    76.914057    88.813394    81.150246    1394.1762 
   68800   -1798222.7    37882.381    37663.571   -74784.915   -161.46648    385.58519    558.69022    76.914057    88.813394    81.150246    1399.7298 
   68900   -1798236.1    37757.098    38495.216   -74962.895    555.15617    391.30164     143.7023    76.914057    88.813394    81.150246    1405.6434 
   69000   -1798171.5    38155.238    38751.993   -74337.692   -208.92754    328.79507    215.72217    76.914057    88.813394    81.150246    1403.1111 
   69100   -1798269.7    37963.142    37557.685   -75558.236    8.4909678   -537.18083   -470.54447    76.914057    88.813394    81.150246    1396.7119 
   69200   -1798223.6    38836.614    37547.505   -74886.112   -46.656697    66.914626    50.982067    76.914057    88.813394    81.150246    1405.3976 
   69300   -1798181.6    38438.483    37954.957   -74176.391    112.82884    113.59762   -12.217888    76.914057    88.813394    81.150246    1399.9186 
   69400     -1798236     37390.82    37482.589   -74615.088   -172.96951   -283.86146   -508.72968    76.914057    88.813394    81.150246    1396.2948 
   69500   -1798226.4    37842.758    37272.126   -75072.485   -385.17349   -129.03056    389.10065    76.914057    88.813394    81.150246    1398.2437 
   69600   -1798199.3    37681.701    38296.998   -73905.119   -224.56617   -202.11427     306.5344    76.914057    88.813394    81.150246    1400.7261 
   69700   -1798134.5    37776.607    38919.314    -73862.68    99.874172    477.94778   -264.50877    76.914057    88.813394    81.150246    1410.6443 
   69800     -1798217     37324.86    37729.819   -74477.671    69.491676    549.69645    441.25294    76.914057    88.813394    81.150246    1389.2056 
   69900   -1798225.8     37331.74    37781.533   -74285.811    27.071955    568.49408    5.1635605    76.914057    88.813394    81.150246    1404.6544 
   70000     -1798211    38096.243    37690.722   -73981.357   -734.54035     731.3086   -484.09172    76.914057    88.813394    81.150246    1395.1954 
   70100   -1798237.1    37402.223    37933.822   -74819.838    346.37456    536.47734   -386.99541    76.914057    88.813394    81.150246    1399.2931 
   70200   -1798211.2    38381.038     38163.69   -74619.427    21.190739    206.09144   -37.584985    76.914057    88.813394    81.150246    1402.5357 
   70300   -1798151.1    37343.477    38755.271   -74400.731   -467.84077    443.91029   -777.29473    76.914057    88.813394    81.150246     1400.424 
   70400     -1798180    38132.975    37963.343   -74412.189   -548.29128    199.88867   -433.68209    76.914057    88.813394    81.150246     1400.752 
   70500   -1798183.9    38744.402    37637.161   -73980.164    133.10911   -190.59659   -117.56361    76.914057    88.813394    81.150246     1401.266 
   70600     -1798238    37769.465    38086.187   -74319.304   -317.47808     -212.861   -358.18999    76.914057    88.813394    81.150246    1403.0936 
   70700   -1798231.5    37245.981    37480.344   -74452.145   -553.78376    293.24829   -212.23533    76.914057    88.813394    81.150246    1401.1674 
   70800   -1798211.2    37299.526    38369.606   -74028.773   -643.54801   -76.327574   -111.02878    76.914057    88.813394    81.150246    1398.9058 
   70900     -1798179     37597.73    38451.033   -74385.068    314.55109    538.00618    550.64253    76.914057    88.813394    81.150246    1401.6156 
   71000   -1798223.6    37233.522    38736.423   -74051.371   -533.92369   -263.61686   -297.41075    76.914057    88.813394    81.150246    1400.9535 
   71100   -1798261.9    38219.541    38003.841   -74307.823    269.27438   -556.73642   -131.57094    76.914057    88.813394    81.150246     1402.751 
   71200   -1798259.9    37066.458    37870.435   -74762.994    612.67808    225.80583    -192.2928    76.914057    88.813394    81.150246    1391.4361 
   71300   -1798257.2    38362.655    38229.272   -74313.333    109.79246    608.77137   -287.44183    76.914057    88.813394    81.150246    1402.0001 
   71400   -1798200.7    38296.215    37244.364   -74116.942   -613.44373   -184.82761   -106.67384    76.914057    88.813394    81.150246    1398.1712 
   71500   -1798195.8    37823.669    37898.621   -74104.041   -251.76146   -169.10175    70.167293    76.914057    88.813394    81.150246    1400.9994 
   71600   -1798181.6    37991.715    38487.587   -74670.078    14.521202   -73.855658    268.53342    76.914057    88.813394    81.150246    1393.8991 
   71700     -1798215    38051.572    37869.141   -75035.896   -53.791345     349.0449    211.76692    76.914057    88.813394    81.150246    1398.3956 
   71800   -1798187.9    38401.416    36881.857   -75615.597   -574.25427    189.91337   -224.56865    76.914057    88.813394    81.150246    1388.8237 
   71900   -1798238.5    37749.742    37870.403   -74797.324   -115.30703   -355.08733       383.25    76.914057    88.813394    81.150246    1400.4139 
   72000   -1798249.4    38117.663    37135.111   -74606.733   -139.51529  0.015802521    278.80223    76.914057    88.813394    81.150246    1399.9415 
   72100   -1798227.7    37112.218     37684.55   -74567.032    2.2378653    149.10302    293.20431    76.914057    88.813394    81.150246     1401.551 
   72200     -1798159    37798.449    37654.576   -74525.585   -271.05617   -318.64074   -169.86872    76.914057    88.813394    81.150246    1398.6293 
   72300   -1798149.2    37679.783    38181.291   -74055.579    475.26936   -357.71371    121.28523    76.914057    88.813394    81.150246    1396.3279 
   72400   -1798224.2    38395.786    37462.049    -74162.26   -573.80836   -165.41567   -55.196506    76.914057    88.813394    81.150246     1400.087 
   72500   -1798175.4    37538.121    38783.672   -74551.223    371.62435    351.88314    162.40985    76.914057    88.813394    81.150246    1410.3258 
   72600   -1798176.5    37451.142    38048.417   -74190.315    1048.9673    192.38237    483.29329    76.914057    88.813394    81.150246    1400.9396 
   72700   -1798202.9    37324.458    37962.855   -74525.757   -768.19264    344.49198    120.97646    76.914057    88.813394    81.150246    1400.9684 
   72800   -1798276.3    37851.515    37868.174   -74796.117   -158.75684   -405.78223    7.7759118    76.914057    88.813394    81.150246    1404.2512 
   72900   -1798193.4    37714.507    37688.117   -74816.115    -374.1436    72.935052    11.296692    76.914057    88.813394    81.150246    1403.7065 
   73000   -1798202.9    37712.091     38392.81   -74979.566    377.03697    111.82663   -222.04328    76.914057    88.813394    81.150246     1395.116 
   73100   -1798268.3    37672.387    37799.842   -74606.732   -10.017255   -419.45935   -140.94482    76.914057    88.813394    81.150246    1404.4972 
   73200   -1798220.4    37362.268    37199.029   -74935.907   -489.05778    46.542696    1.8234321    76.914057    88.813394    81.150246    1402.6246 
   73300   -1798177.2    37903.276    38009.838   -74527.707    294.85151   -58.562472    154.88843    76.914057    88.813394    81.150246    1399.7511 
   73400   -1798270.1    37845.911    37529.275   -74975.691   -131.25384   -258.98095   -944.32413    76.914057    88.813394    81.150246    1402.5192 
   73500   -1798229.2    37784.042    36950.018   -74952.792   -551.27168    470.75505   -446.86323    76.914057    88.813394    81.150246    1402.6141 
   73600   -1798235.7    37788.064    37938.979   -75286.343    353.93991    269.52248   -365.14986    76.914057    88.813394    81.150246    1395.1115 
   73700   -1798246.7    37376.241    37959.974   -74813.985   -76.254235    419.70161   -190.47752    76.914057    88.813394    81.150246    1405.6355 
   73800   -1798198.8    37725.571    37747.715   -75353.197    -174.2229    112.96935   -33.164964    76.914057    88.813394    81.150246    1397.3095 
   73900   -1798192.6    37550.365    39089.029    -74903.66     179.1529    654.24992    801.98508    76.914057    88.813394    81.150246    1402.3648 
   74000   -1798212.5    38502.338      37527.6   -75233.005    300.61625    92.072959    346.52718    76.914057    88.813394    81.150246    1393.0363 
   74100   -1798219.4    38081.005    37808.601   -75550.908    305.42777    228.02728   -247.95789    76.914057    88.813394    81.150246     1400.674 
   74200   -1798268.8    37073.122    38322.326   -74666.393   -156.27109    84.899164   -612.44438    76.914057    88.813394    81.150246    1405.0229 
   74300   -1798227.9    38277.152    37170.767   -74997.087   -105.42199   -471.37498   -103.54839    76.914057    88.813394    81.150246      1394.23 
   74400   -1798253.6    37731.249    37605.868   -74891.985    -390.9783   -355.95179   -119.45296    76.914057    88.813394    81.150246     1397.582 
   74500   -1798158.7    38311.714    37436.847   -75142.058   -230.00748   -101.50505    3.7076832    76.914057    88.813394    81.150246    1392.0629 
   74600   -1798263.8    37408.249    38885.339   -75024.745   -312.73913    693.84127    5.7672448    76.914057    88.813394    81.150246    1391.7433 
   74700   -1798242.8    38170.541    38124.704   -75367.197    623.35954    227.86323    311.93143    76.914057    88.813394    81.150246    1411.3916 
   74800   -1798231.7     37811.88    37375.577   -74498.187   -70.359465    524.43012    35.687444    76.914057    88.813394    81.150246    1394.8771 
   74900   -1798234.4    37777.218    38145.976   -74817.079   -350.54337    42.694304     142.1037    76.914057    88.813394    81.150246    1394.4378 
   75000   -1798250.8    36889.555     38441.63   -74902.861    -40.32054    509.98139   -425.11337    76.914057    88.813394    81.150246    1397.7868 
   75100   -1798264.9    37284.614    38115.273    -74732.72   -441.48998    409.95242   -328.10372    76.914057    88.813394    81.150246     1404.196 
   75200   -1798157.5    38163.162    38222.249   -74410.944   -148.27161   -85.943798    -32.09996    76.914057    88.813394    81.150246    1399.2716 
   75300   -1798207.9     37884.41     37656.91   -74242.211    -273.1564   -6.1220499   -391.77986    76.914057    88.813394    81.150246    1404.4135 
   75400   -1798211.1    37149.488    38133.494   -74344.343   -396.89684   -10.600249   -87.521342    76.914057    88.813394    81.150246    1398.5909 
   75500   -1798218.7    37644.112     37173.83   -74459.379   -200.08702   -307.28935    -435.1962    76.914057    88.813394    81.150246    1401.4479 
   75600   -1798263.7    38096.654    37412.795   -73897.878    65.929808   -4.9487812   -69.126684    76.914057    88.813394    81.150246    1402.1718 
   75700   -1798228.2    36756.063    38280.329   -74367.164   -11.138742    4.5538705    55.890706    76.914057    88.813394    81.150246    1395.2707 
   75800   -1798325.4    36848.712    36642.465   -74782.931    -374.7312   -138.97929    243.99306    76.914057    88.813394    81.150246    1407.2441 
   75900   -1798258.2     36753.51    36970.224   -75207.779   -268.02801    -303.7175   -165.66115    76.914057    88.813394    81.150246    1394.9412 
   76000   -1798198.2    36546.884    37813.968   -74293.309   -929.83168    241.46663   -191.46073    76.914057    88.813394    81.150246    1398.1376 
   76100   -1798218.8    37126.498      38501.9    -74562.94   -231.25892    43.125073   -368.52012    76.914057    88.813394    81.150246    1399.9417 
   76200   -1798267.3    37963.784    37286.213   -74898.948     207.9765    -283.8648    180.03539    76.914057    88.813394    81.150246    1400.5487 
   76300   -1798216.8    38116.269    37394.224   -74899.542   -107.74417   -314.79832   -277.87269    76.914057    88.813394    81.150246    1399.2194 
   76400   -1798184.6    38101.717    38138.454   -75165.667   -1239.2026    28.979017   -359.49037    76.914057    88.813394    81.150246     1402.531 
   76500     -1798157    38626.563     37368.94   -74502.906   -33.223794   -935.92645   -204.42822    76.914057    88.813394    81.150246    1409.1898 
   76600   -1798253.5    37381.566    36478.996    -75184.24    1239.7147   -1020.6181   -138.59138    76.914057    88.813394    81.150246    1397.9214 
   76700   -1798296.7    37439.114    36609.211   -75220.113   -746.19063   -61.490566   -335.86522    76.914057    88.813394    81.150246    1398.2504 
   76800   -1798195.8    37699.143    38087.209   -74200.888    41.856539   -137.47703    69.928466    76.914057    88.813394    81.150246    1404.4039 
   76900   -1798194.7     37528.94    38194.806   -74708.087    539.00662   -490.60981    214.89123    76.914057    88.813394    81.150246    1403.0092 
   77000   -1798195.1    38196.444    38156.982   -74152.412   -272.62129    100.83395    69.125143    76.914057    88.813394    81.150246    1394.2537 
   77100     -1798210    38092.353    37762.841   -73932.301   -324.61583   -76.986496    59.455583    76.914057    88.813394    81.150246    1395.8865 
   77200   -1798277.7    36572.953    37497.228   -74935.482   -114.33694   -573.77394   -544.43061    76.914057    88.813394    81.150246    1395.8932 
   77300   -1798214.1    37879.737    37493.405   -74146.889   -550.07723   -158.81667    -400.6494    76.914057    88.813394    81.150246    1399.2998 
   77400   -1798193.1    38493.419    37933.314   -74102.259   -599.07538   -403.88837   -261.93726    76.914057    88.813394    81.150246    1409.8155 
   77500   -1798216.4    37464.343    38127.171   -73415.418   -416.57807   -33.680658   -242.44525    76.914057    88.813394    81.150246    1402.5066 
   77600     -1798192    37053.184     38469.27   -74728.949   -393.99157    275.65923   -481.20109    76.914057    88.813394    81.150246    1400.5374 
   77700   -1798293.8    37762.037    37282.075   -73615.852   -143.13579    146.51197    31.202156    76.914057    88.813394    81.150246    1404.2818 
   77800   -1798246.4    38021.922     36781.69   -74626.626    -767.4079    5.7112815   -135.35695    76.914057    88.813394    81.150246    1397.1615 
   77900   -1798176.3     37684.78    38568.504   -74302.566    234.02824   -614.98931    102.77225    76.914057    88.813394    81.150246     1395.422 
   78000   -1798202.2    39151.587    37633.873   -74261.342   -311.13973   -250.44018    415.78477    76.914057    88.813394    81.150246    1409.6109 
   78100   -1798233.4    37617.281    36901.103   -74980.156   -931.87067   -429.25299    -397.9644    76.914057    88.813394    81.150246    1405.6544 
   78200   -1798224.6    37774.363    37836.699   -74820.442   -331.93422   -233.25453    -9.638456    76.914057    88.813394    81.150246    1398.2223 
   78300   -1798271.9     37337.79    37898.431   -74518.355   -141.24969   -720.03876    586.38256    76.914057    88.813394    81.150246    1400.8875 
   78400   -1798255.7    38081.669    37366.845   -74881.499    315.65587   -424.95283    214.36144    76.914057    88.813394    81.150246     1400.897 
   78500   -1798231.9    39131.757    37166.384   -73677.196   -51.433076    -333.7239    650.05116    76.914057    88.813394    81.150246    1408.2427 
   78600   -1798221.6    38045.741    37345.938   -73652.295   -300.00328    -200.5154     27.96931    76.914057    88.813394    81.150246     1405.479 
   78700   -1798243.2    37746.661    37318.653   -74610.707   -163.60968   -217.12649    17.994762    76.914057    88.813394    81.150246    1394.4651 
   78800   -1798224.1    36775.736    36935.471   -74398.617   -488.98322   -271.76198    -189.3058    76.914057    88.813394    81.150246    1396.3944 
   78900   -1798220.2    37898.392     36500.08   -73990.199   -523.69444   -6.3312082   -34.564237    76.914057    88.813394    81.150246    1395.3625 
   79000   -1798247.1    37569.359    37271.658   -74410.489    14.436878    9.4780568    177.01168    76.914057    88.813394    81.150246    1390.9775 
   79100   -1798230.1    37944.288    37599.618   -74498.288   -255.26103   -539.54284   -461.89867    76.914057    88.813394    81.150246    1394.1901 
   79200   -1798239.2    38730.338    37870.719   -74188.483    71.230846   -327.76239    512.39729    76.914057    88.813394    81.150246      1407.03 
   79300   -1798246.5    37934.825    37069.981   -74513.488    174.27124   -14.366926    88.007724    76.914057    88.813394    81.150246    1402.2748 
   79400   -1798290.9    37827.042    37635.001    -75209.38   -97.503112   -697.51416    734.29888    76.914057    88.813394    81.150246    1392.8757 
   79500   -1798294.8    37145.665    37696.377   -74780.975    221.17825    33.085925    435.28006    76.914057    88.813394    81.150246    1400.1781 
   79600   -1798222.9    37946.411     37746.85   -74607.085    694.25393   -132.93729     293.8358    76.914057    88.813394    81.150246    1397.6445 
   79700   -1798226.8    37785.277    36703.384   -74971.306   -38.604851   -23.644575    177.10687    76.914057    88.813394    81.150246    1402.2337 
   79800   -1798204.1    37310.455    38314.357    -74634.62   -129.86672    60.072745    285.72942    76.914057    88.813394    81.150246    1403.1135 
   79900   -1798276.6    37721.724    37464.615   -74825.835     -610.007    182.47092    565.28107    76.914057    88.813394    81.150246    1397.8026 
   80000   -1798158.6    37662.164    37760.943    -74410.31    371.44998    297.42104   -69.919234    76.914057    88.813394    81.150246    1399.6958 
   80100   -1798273.8    37211.333    37983.823   -74400.125    720.66934    238.85091     811.7948    76.914057    88.813394    81.150246    1402.0094 
   80200   -1798268.2     36984.38    37398.196   -74764.584   -185.84485   -396.17527    409.77644    76.914057    88.813394    81.150246    1402.5678 
   80300   -1798195.2    37813.749    37102.469   -74463.298    44.297429    92.016664    460.76453    76.914057    88.813394    81.150246    1402.3464 
   80400   -1798239.2    37451.735    37645.603   -74524.813    1052.1947   -255.43222    808.75647    76.914057    88.813394    81.150246     1402.791 
   80500   -1798176.4    38049.501    38609.393   -73792.171    259.07653    538.47388   -116.92318    76.914057    88.813394    81.150246    1408.6282 
   80600   -1798268.9    37150.355     37420.12   -74521.974    -203.2521    365.81882   -209.02754    76.914057    88.813394    81.150246    1397.6224 
   80700   -1798240.5    36415.761    38087.378   -73976.473   -396.47183    965.27769    186.69543    76.914057    88.813394    81.150246    1391.3664 
   80800   -1798226.7    37595.131    36695.487   -74675.709    983.93646    353.05868    439.47104    76.914057    88.813394    81.150246    1394.6636 
   80900   -1798286.9    37129.221    37260.647    -74948.22   -126.20435     59.23522    -399.1613    76.914057    88.813394    81.150246    1399.8489 
   81000   -1798250.7    37605.418    38155.495   -74702.911    315.92819    609.43709    -154.1863    76.914057    88.813394    81.150246    1399.6415 
   81100   -1798227.2    37754.845    37835.697   -74999.846    774.13997    668.33927    229.38681    76.914057    88.813394    81.150246    1403.9933 
   81200   -1798256.4    37440.236     37628.23   -75284.056    -563.5691    287.94713   -456.53811    76.914057    88.813394    81.150246    1405.2077 
   81300   -1798219.6    38118.712    39000.272   -74220.198   -194.94565    387.60514   -551.71746    76.914057    88.813394    81.150246    1400.8045 
   81400   -1798234.5    37812.372    38376.696   -74666.239    845.94451    628.76507   -18.861785    76.914057    88.813394    81.150246    1402.1576 
   81500   -1798194.6    37515.887    38198.394    -74665.45    190.42285    350.23953    62.805587    76.914057    88.813394    81.150246    1401.1992 
   81600   -1798241.1    38179.314    37035.324   -75103.711    -223.7955   -88.037341   -74.236508    76.914057    88.813394    81.150246    1391.7545 
   81700   -1798210.6    37151.649      37372.3   -74270.189   -267.28038   -114.95051   -104.05147    76.914057    88.813394    81.150246    1397.2417 
   81800   -1798253.6     37301.28    38078.499   -74383.993    114.11481    52.485862    29.149936    76.914057    88.813394    81.150246    1399.2371 
   81900   -1798272.9    37869.532    37067.573   -74848.911     -479.256   -776.52019    137.77635    76.914057    88.813394    81.150246    1405.3572 
   82000   -1798200.3    38020.546    37679.695   -74085.637     16.05623    -410.7116    8.6455793    76.914057    88.813394    81.150246    1403.3082 
   82100   -1798268.6    37513.227    37236.311   -74265.823     241.9576   -182.32614   -202.11752    76.914057    88.813394    81.150246    1393.0543 
   82200     -1798192    37150.129    37357.076   -74174.082    141.15724    178.87829    90.242332    76.914057    88.813394    81.150246    1396.3108 
   82300   -1798191.2    37001.547     37695.32   -74283.914    170.78042    406.85708   -348.20575    76.914057    88.813394    81.150246    1391.6393 
   82400   -1798263.1    36273.979     37361.46   -74264.632    230.70932   -299.30356    468.49153    76.914057    88.813394    81.150246    1392.5724 
   82500     -1798229    36896.109    37368.671   -74986.942   -66.321277   -15.571029     178.9228    76.914057    88.813394    81.150246    1397.0387 
   82600   -1798208.7    36972.792    38325.461   -73562.514    184.22146    715.25792    198.28138    76.914057    88.813394    81.150246    1402.2067 
   82700   -1798186.3    38007.356    37781.486   -74102.059    176.34972    446.26068    383.33982    76.914057    88.813394    81.150246    1414.3828 
   82800   -1798258.3    37170.957    38123.293   -73842.956   -230.15808    889.47553    474.13847    76.914057    88.813394    81.150246    1393.7849 
   82900   -1798148.4    37159.928     38455.07   -74189.142    423.37736    503.28409   -118.96237    76.914057    88.813394    81.150246    1398.3261 
   83000   -1798235.3    37727.544    37257.267   -74525.967   -339.35905     336.8168    658.68145    76.914057    88.813394    81.150246    1402.2984 
   83100   -1798196.5     38103.57    38336.177   -74655.879     378.1678   -234.13438    530.60447    76.914057    88.813394    81.150246    1391.3053 
   83200   -1798261.8    37511.941    37997.441   -74209.315    24.228558     270.0579     314.1327    76.914057    88.813394    81.150246    1401.3865 
   83300   -1798230.6     37412.13    37855.617   -74833.671    96.796439    220.68135    258.70723    76.914057    88.813394    81.150246    1405.0963 
   83400   -1798258.8    37664.917     37216.99   -74616.036   -257.59482   -35.760911    167.51337    76.914057    88.813394    81.150246    1397.8705 
   83500   -1798294.7    38017.703    37332.639   -74768.237   -127.35475   -156.14031   -415.86092    76.914057    88.813394    81.150246    1408.3362 
   83600   -1798219.7     36911.67    38411.304   -74835.676   -354.66809    45.829316    90.752872    76.914057    88.813394    81.150246    1393.6692 
   83700   -1798244.5    38542.608    37637.766   -75257.809   -204.82859   -451.49381   -107.95459    76.914057    88.813394    81.150246    1390.0928 
   83800   -1798232.7    37935.469    37610.318    -75073.07   -114.70147    145.46457   -285.53063    76.914057    88.813394    81.150246    1400.9035 
   83900   -1798282.2    37814.335    37179.813   -75667.584    -243.9543   -75.637377    22.944023    76.914057    88.813394    81.150246    1399.3203 
   84000   -1798273.7    37857.723    38023.379   -75109.677   -117.76686   -353.02873    185.15839    76.914057    88.813394    81.150246    1401.4775 
   84100   -1798116.4    38951.384    37996.511   -74524.914    50.416328   -46.222348     758.2134    76.914057    88.813394    81.150246    1405.0482 
   84200   -1798191.6    38149.883    38029.904   -74760.172   -420.19096    88.397485   -93.042005    76.914057    88.813394    81.150246    1398.2183 
   84300   -1798275.4    37204.193    37178.312   -74325.616   -426.38002    135.55222    95.350234    76.914057    88.813394    81.150246    1400.4381 
   84400   -1798211.9    38076.265    36923.857   -74766.961   -278.39168   -210.03157   -285.99038    76.914057    88.813394    81.150246     1402.418 
   84500   -1798210.6    38414.059    37158.549   -74534.859    22.665383   -224.71444    400.28028    76.914057    88.813394    81.150246    1396.0251 
   84600   -1798291.7    37810.916    36163.415   -75215.266    168.05986   -616.04051    14.828188    76.914057    88.813394    81.150246    1393.3282 
   84700     -1798178     38244.14    37222.957    -73947.47   -329.29636   -697.02542     511.8668    76.914057    88.813394    81.150246    1404.8541 
   84800   -1798239.1    37763.117    36985.197   -74717.027   -527.07731    -228.2814   -53.197134    76.914057    88.813394    81.150246    1390.1238 
   84900   -1798309.6    36894.904    37286.431   -74475.395    924.02862   -449.96595    641.38441    76.914057    88.813394    81.150246    1401.9354 
   85000   -1798183.8    38072.231    36942.896   -74137.205    236.42592   -615.10093    273.71589    76.914057    88.813394    81.150246    1401.4501 
   85100   -1798169.2    38646.466    36267.548   -73715.747     145.5488   -1366.0307    107.49413    76.914057    88.813394    81.150246    1401.2982 
   85200   -1798210.2    38323.512    36754.878   -73622.658    160.89321   -488.03935    550.41408    76.914057    88.813394    81.150246    1393.5726 
   85300   -1798180.1    37328.131    37646.388   -73829.334    355.34877   -580.51868    521.13841    76.914057    88.813394    81.150246    1404.5036 
   85400   -1798201.6    38730.945    37666.609   -73303.047    621.53285   -746.68962    81.238968    76.914057    88.813394    81.150246    1403.9639 
   85500   -1798255.9    38367.636    37080.075   -74919.232    -925.7711   -456.70956   -34.351572    76.914057    88.813394    81.150246    1401.4108 
   85600   -1798210.6    37691.763    37111.403   -74806.691   -121.29795   -737.74739    154.20581    76.914057    88.813394    81.150246    1401.3321 
   85700   -1798255.5     37707.01    37832.591   -74989.536   -57.560336   -178.06045    323.82811    76.914057    88.813394    81.150246     1402.084 
   85800     -1798231    37791.514    37276.097   -75061.454    228.48687    67.245417    203.72458    76.914057    88.813394    81.150246    1396.5341 
   85900   -1798213.1    37605.934    37121.636   -74383.992    326.06425   -188.97407   -104.20361    76.914057    88.813394    81.150246    1393.7338 
   86000   -1798218.3    38123.851    37545.665   -74428.826    404.06657    179.16843    610.52714    76.914057    88.813394    81.150246    1401.6833 
   86100   -1798216.9    37439.481    38736.782   -73587.465    1008.8383    658.01339     554.1032    76.914057    88.813394    81.150246    1402.3421 
   86200   -1798222.7    37885.861    37512.476   -74607.996    8.3643372   -104.04672    103.91927    76.914057    88.813394    81.150246     1400.333 
   86300   -1798259.8     38158.61    37234.467   -74743.077    692.47555    20.319308    234.73149    76.914057    88.813394    81.150246    1400.5227 
   86400   -1798240.7    37304.816    38218.956   -74516.795    265.47863    291.28062    345.64917    76.914057    88.813394    81.150246    1393.8908 
   86500   -1798201.9    37583.037    38791.724   -74924.577    897.95163    735.98111    143.17419    76.914057    88.813394    81.150246    1398.8848 
   86600   -1798256.8    36696.469    37163.494   -74847.171   -280.83246   -117.44879    532.86211    76.914057    88.813394    81.150246    1399.4315 
   86700   -1798200.8    36741.127    37985.981   -74786.292   -70.571351    36.959415   -335.35972    76.914057    88.813394    81.150246    1396.6439 
   86800   -1798211.3    37566.057     37868.45   -74194.955    113.52627    189.61374    46.916047    76.914057    88.813394    81.150246    1406.4028 
   86900   -1798203.4    37668.674    37178.679   -74109.283   -248.00308    518.05097   -118.74312    76.914057    88.813394    81.150246     1395.008 
   87000   -1798237.9    37664.776    37306.273   -74309.366    252.26078   -61.763445    193.28765    76.914057    88.813394    81.150246    1400.9343 
   87100     -1798238    37580.805     38127.14   -74158.591    206.55661    132.28459    486.15536    76.914057    88.813394    81.150246    1405.9098 
   87200     -1798186    37840.819    38662.102   -74127.505   -181.76298    506.80297    339.18523    76.914057    88.813394    81.150246    1404.3594 
   87300   -1798201.8    38076.603    37804.738   -74706.616   -116.23867    254.20337   -341.48116    76.914057    88.813394    81.150246    1398.3253 
   87400   -1798234.8    37918.253    36541.567   -75206.313   -242.13339   -87.123914    381.02344    76.914057    88.813394    81.150246    1402.0197 
   87500   -1798197.5    37027.924    38267.117   -73595.126    623.08531    312.91323    725.79812    76.914057    88.813394    81.150246    1402.7256 
   87600   -1798273.5    37372.654    37625.471   -74959.535   -766.14467   -64.772933   -552.36501    76.914057    88.813394    81.150246    1402.5333 
   87700   -1798271.1    37831.161    37681.275   -74851.791    -180.3394   -56.659119    2.4611952    76.914057    88.813394    81.150246    1401.5336 
   87800   -1798179.6    38149.585    38202.234   -73885.141    463.15858    152.97986    53.730594    76.914057    88.813394    81.150246    1396.3826 
   87900   -1798162.8    38150.201    38391.687   -73572.805    -276.0818    599.96749   -424.67916    76.914057    88.813394    81.150246    1403.0547 
   88000   -1798214.2    37754.338    37774.714   -74120.752   -161.18124    262.46535   -349.59039    76.914057    88.813394    81.150246    1408.3418 
   88100   -1798213.1    37484.824     38064.44   -74458.036    628.22312    314.39304   -338.02291    76.914057    88.813394    81.150246    1403.9444 
   88200   -1798261.9    36976.511    37727.507   -74644.939     23.59673    117.71796    246.27066    76.914057    88.813394    81.150246    1395.4106 
   88300     -1798220    37800.314    37750.695   -74793.351   -346.68921    424.35994   -314.18275    76.914057    88.813394    81.150246    1410.4572 
   88400   -1798291.4    36805.875    38284.552   -75614.142    613.42863    735.66711    661.75613    76.914057    88.813394    81.150246    1393.7556 
   88500   -1798204.4    37468.353    39202.475   -74456.221    204.73326    354.78122   -450.99777    76.914057    88.813394    81.150246    1406.3989 
   88600   -1798240.2    37445.862    38525.311   -75363.301     49.20463    272.25566    148.03202    76.914057    88.813394    81.150246    1394.9792 
   88700   -1798202.5    38241.025    37687.227   -75013.678    -341.3428   -320.36342   -201.32675    76.914057    88.813394    81.150246    1403.6294 
   88800   -1798267.7    37701.103    37599.229   -74871.533    230.28581   -318.22756   -179.84156    76.914057    88.813394    81.150246    1399.0167 
   88900   -1798176.1    36935.643    38513.453   -75131.612   -277.83157    345.49814    15.824047    76.914057    88.813394    81.150246    1397.9706 
   89000   -1798257.3    36924.599    37299.593   -75891.753   -382.98994   -46.314991    24.250563    76.914057    88.813394    81.150246    1396.4953 
   89100   -1798221.7    37819.705    37360.528   -74884.573    447.35862   -345.18379    161.47019    76.914057    88.813394    81.150246    1398.8614 
   89200   -1798227.6    38232.974    37920.133   -74976.931    499.70593    36.682657   -116.30327    76.914057    88.813394    81.150246     1406.382 
   89300   -1798199.9    38280.271    38094.667   -74118.281   -203.53137    221.89345   -119.66889    76.914057    88.813394    81.150246    1398.2104 
   89400   -1798247.4    37730.429    37894.804   -74705.549     560.1254    142.70033    345.80181    76.914057    88.813394    81.150246    1403.1342 
   89500   -1798282.9    36767.338    37411.616   -75332.064   -211.75329    607.45586    248.68928    76.914057    88.813394    81.150246    1397.2222 
   89600   -1798162.1     37978.66    37660.467   -74440.648   -249.57037   -82.245079   -133.27538    76.914057    88.813394    81.150246    1395.6164 
   89700   -1798160.9    37717.808    37746.731   -74007.302    395.56909    450.65819   -293.55041    76.914057    88.813394    81.150246    1406.7754 
   89800   -1798209.6    37700.011    38929.222   -75090.147   -549.54438    64.225028    467.23398    76.914057    88.813394    81.150246    1395.0352 
   89900   -1798232.3    37960.137    38104.847   -74955.073   -369.26103   -237.11684    -143.1035    76.914057    88.813394    81.150246     1399.179 
   90000   -1798197.5    37452.522    37521.249   -75346.259    430.73429   -7.2325222    122.29052    76.914057    88.813394    81.150246    1395.7121 
   90100   -1798275.4    37265.126    36980.658   -75440.297    30.170743   -26.571673    293.05982    76.914057    88.813394    81.150246    1394.3472 
   90200   -1798220.6    38070.547    37792.323   -75058.549    115.57314    428.47201    733.77445    76.914057    88.813394    81.150246    1405.7883 
   90300   -1798191.3    37997.641    37857.732    -74960.58   -534.89888    264.81904    198.62075    76.914057    88.813394    81.150246    1393.6365 
   90400   -1798264.9    38253.367    36990.884   -75387.867    416.06817    210.11339    58.843342    76.914057    88.813394    81.150246    1395.5839 
   90500   -1798222.3    37942.498    38539.574   -74553.715   -389.89398   -36.466665    302.84909    76.914057    88.813394    81.150246    1402.9532 
   90600   -1798223.5    38202.097    38336.006   -74874.575   -11.351011    58.047512   -438.56768    76.914057    88.813394    81.150246     1394.109 
   90700   -1798135.7    37767.979    37937.613   -75122.512    367.82016   -76.468413   -96.127337    76.914057    88.813394    81.150246    1402.5838 
   90800   -1798206.3    37758.948    37489.875   -75251.678     630.6927    402.19763    -244.7683    76.914057    88.813394    81.150246    1399.6772 
   90900   -1798242.2     36648.98    38526.864    -75466.59   -371.02914    978.18743   -41.500396    76.914057    88.813394    81.150246     1406.858 
   91000   -1798169.9    38033.712    37745.467   -74468.742   -179.92445    655.46733    -41.66156    76.914057    88.813394    81.150246    1401.7427 
   91100   -1798248.6    38140.042    37426.698   -74911.399    464.70058 -0.090354511    42.096005    76.914057    88.813394    81.150246    1402.2634 
   91200   -1798184.1    37321.981    38972.797   -74296.264    19.365223    838.94184   -784.92124    76.914057    88.813394    81.150246    1404.2114 
   91300   -1798230.1    37576.565    37841.548    -74777.09      19.9502    754.59173    -408.3514    76.914057    88.813394    81.150246    1409.0859 
   91400     -1798218     38136.53    38015.321   -74502.986   -72.806961    145.89953   -524.03883    76.914057    88.813394    81.150246    1404.1596 
   91500   -1798251.7    38073.423    37905.314   -74160.455   -382.71857    461.09598   -606.88494    76.914057    88.813394    81.150246    1399.9963 
   91600   -1798243.4    37100.343    37858.367   -75146.233    345.04144    -146.9532   -405.86407    76.914057    88.813394    81.150246    1399.4217 
   91700   -1798206.5    38215.742      38203.3   -74768.851   -510.18828    14.257513   -372.14385    76.914057    88.813394    81.150246    1403.3543 
   91800   -1798249.1    38606.845    37777.264   -74950.184   -600.75249     380.4671    -586.3299    76.914057    88.813394    81.150246    1400.1141 
   91900   -1798234.8    38703.926    38376.895   -74194.904    120.58866    371.38136    -306.3358    76.914057    88.813394    81.150246    1407.8815 
   92000   -1798226.8    37703.432    37237.841   -74472.764   -267.74022    165.20533    139.03152    76.914057    88.813394    81.150246    1406.1696 
   92100   -1798270.7    37240.054    37153.034   -75118.369   -357.09656   -94.519157   -551.61116    76.914057    88.813394    81.150246    1396.5679 
   92200   -1798187.5    37456.762    38579.444   -75298.567   -212.21743     195.6674   -23.961922    76.914057    88.813394    81.150246    1399.3453 
   92300   -1798254.5    37752.244    37787.426   -75391.719   -606.43412   -56.598614   -272.12754    76.914057    88.813394    81.150246    1399.3569 
   92400   -1798209.9     37962.57    37723.168   -75135.774   -391.29666   -524.78362   -596.73611    76.914057    88.813394    81.150246    1396.0872 
   92500   -1798192.7    37710.026    38075.649   -74386.662   -199.46737    339.64982   -503.47698    76.914057    88.813394    81.150246    1401.5848 
   92600   -1798151.1    38352.344    38735.551   -73891.836   -291.33445    -682.2817   -483.88591    76.914057    88.813394    81.150246    1404.8324 
   92700   -1798227.8    37706.346    37566.987     -74766.4    243.74043    124.34645   -21.104368    76.914057    88.813394    81.150246    1399.4449 
   92800   -1798179.5    38716.171    37474.878   -73996.621   -68.857943   -110.50599    151.18311    76.914057    88.813394    81.150246    1400.0745 
   92900   -1798181.4    37578.747     38685.97   -73854.801    77.636567    755.68654    110.06212    76.914057    88.813394    81.150246     1401.846 
   93000   -1798153.9    37783.591    38267.346   -74644.294   -358.13216    117.20366    347.07208    76.914057    88.813394    81.150246    1403.5298 
   93100   -1798213.8    38281.885    38223.723   -73967.499   -435.31924     690.2744   -182.56101    76.914057    88.813394    81.150246    1398.8418 
   93200   -1798195.7    37338.352    38973.608   -74796.621    236.84907    333.45305   -183.33716    76.914057    88.813394    81.150246    1401.7497 
   93300     -1798177    38116.388    37826.668   -74444.625    255.13129    201.14563   -307.07763    76.914057    88.813394    81.150246    1392.1588 
   93400   -1798256.5     37711.97    37463.868   -75095.972    -165.3884    63.780086   -233.90032    76.914057    88.813394    81.150246    1397.0723 
   93500   -1798259.2    36672.056     38338.37   -75460.047   -407.06628    249.97518    193.07622    76.914057    88.813394    81.150246     1396.567 
   93600   -1798273.6    36884.729    37765.119   -74845.123    133.76618   -36.071665    -351.8548    76.914057    88.813394    81.150246    1389.6891 
   93700   -1798241.2    37160.253     37724.31   -74259.012   -525.59514     750.6464   -199.14352    76.914057    88.813394    81.150246    1401.0032 
   93800   -1798184.2    37846.581    37579.797   -74267.836   -398.30469    79.739483   -850.50421    76.914057    88.813394    81.150246     1402.571 
   93900   -1798259.7    36986.648    38258.855   -74214.658    572.27585    463.75407   -123.63295    76.914057    88.813394    81.150246    1401.8876 
   94000   -1798212.8    38021.503    37168.728   -74497.044   -238.13771    745.61768   -131.08215    76.914057    88.813394    81.150246    1400.5685 
   94100   -1798188.2    37568.542    37977.895   -74064.773   -211.96007    178.45698   -99.494014    76.914057    88.813394    81.150246    1401.9742 
   94200   -1798289.6    37253.275    36755.066   -75410.127   -525.15645    997.50094   -352.91577    76.914057    88.813394    81.150246    1399.1164 
   94300   -1798219.3     37477.17    38679.108   -74525.571   -196.38373    946.19139   -453.61858    76.914057    88.813394    81.150246    1399.7436 
   94400   -1798209.4    38174.058    36559.817   -74951.206   -212.28722    143.50574   -391.55065    76.914057    88.813394    81.150246    1396.9726 
   94500   -1798219.9    37824.951    38202.249   -74681.386    80.928969     575.8369   -277.85128    76.914057    88.813394    81.150246    1390.9365 
   94600   -1798221.5    37616.384    39016.085   -74791.887    503.04547    887.92502    759.07399    76.914057    88.813394    81.150246     1405.632 
   94700   -1798219.2    38009.095    37688.893   -74368.319    93.873329    359.97269     273.5325    76.914057    88.813394    81.150246    1407.0733 
   94800   -1798205.7    37586.797     38342.11   -74391.963    20.079205    480.86424    271.99024    76.914057    88.813394    81.150246    1402.2081 
   94900   -1798238.8    37342.857    38189.379   -74254.155   -33.448899    204.44725    638.91811    76.914057    88.813394    81.150246    1397.5216 
   95000   -1798221.3    37485.938    37552.588   -73658.592    607.13162   -301.15946    99.581454    76.914057    88.813394    81.150246     1400.584 
   95100   -1798262.1    37886.834    37210.788   -74423.989   -47.937475   -239.39157   -182.42266    76.914057    88.813394    81.150246    1410.1073 
   95200   -1798246.7    37042.843    38060.257   -74397.922    51.071782    178.72447    249.56356    76.914057    88.813394    81.150246    1403.1202 
   95300   -1798200.9     37715.24    38237.737    -74732.91    376.10672    102.01245   -209.42515    76.914057    88.813394    81.150246    1400.6767 
   95400     -1798185    38384.117    38013.719   -74922.432    437.17755   -88.701811    144.73098    76.914057    88.813394    81.150246    1399.9057 
   95500   -1798248.7    38626.626    36755.055   -75834.372   -443.15467   -189.31621    407.71641    76.914057    88.813394    81.150246     1404.494 
   95600   -1798231.3    37965.392    37724.743   -75210.653    269.37808    60.225316    139.86798    76.914057    88.813394    81.150246    1397.0483 
   95700   -1798250.6    37727.868    37665.294   -74690.788   -294.05857   -130.14499    146.39684    76.914057    88.813394    81.150246    1400.8623 
   95800   -1798244.7    37866.754    37419.911   -75291.014    362.84229    407.04004    539.40733    76.914057    88.813394    81.150246    1401.4856 
   95900   -1798289.6    37798.507    37100.661   -75140.089    573.82051     412.0259    471.49652    76.914057    88.813394    81.150246    1396.7728 
   96000   -1798183.3    37670.314    38606.596   -74377.609   -122.26271    14.201129    119.77257    76.914057    88.813394    81.150246    1405.1328 
   96100   -1798234.2    38043.356     36979.19   -73981.364   -294.82416    257.40233   -9.3214803    76.914057    88.813394    81.150246     1396.051 
   96200   -1798219.8     37596.62    37689.482   -73720.262    355.60666     268.0037    337.76284    76.914057    88.813394    81.150246    1404.0322 
   96300   -1798216.5     37529.87    37873.011   -74176.533    194.64128     90.76158   -434.85505    76.914057    88.813394    81.150246    1394.9058 
   96400     -1798217    37038.604    37729.436   -73893.042   -446.35995   -12.452432   -414.98277    76.914057    88.813394    81.150246    1393.2337 
   96500   -1798233.4    37050.383    37471.929   -74512.802    247.49695   -158.64553   -27.644983    76.914057    88.813394    81.150246    1399.6982 
   96600   -1798243.3    37317.588    37322.113   -74304.184   -152.73718    88.021696     -172.076    76.914057    88.813394    81.150246     1393.606 
   96700   -1798231.2    37638.028    38235.459   -73662.205   -36.340121    -5.122671    -296.5273    76.914057    88.813394    81.150246    1400.3724 
   96800     -1798163    37329.941    37902.116   -73667.915   -153.92373    49.772829   -541.61214    76.914057    88.813394    81.150246    1391.6047 
   96900   -1798217.2    38708.466    37012.838   -74756.388   -15.771188    -314.4982   -146.04008    76.914057    88.813394    81.150246    1403.9867 
   97000   -1798232.8    38040.014    37817.913   -74659.922    595.41952   -135.86364   -10.889263    76.914057    88.813394    81.150246    1402.1103 
   97100   -1798261.4    37733.435    37342.776   -75167.145   -448.68502   -69.039916   -614.17884    76.914057    88.813394    81.150246    1407.5656 
   97200   -1798236.9    37565.197    37502.443    -75071.79    -328.2898   -125.75254    406.47749    76.914057    88.813394    81.150246    1398.9289 
   97300   -1798327.3    37340.405    36964.441    -75894.04    304.10909    101.26614   -94.608614    76.914057    88.813394    81.150246    1394.8966 
   97400   -1798310.7     37295.86    36806.638   -75843.073    857.15775   -363.83076    415.70089    76.914057    88.813394    81.150246       1399.6 
   97500   -1798266.7    38412.972     37473.35   -74907.072   -171.38233   -381.42169   -356.67649    76.914057    88.813394    81.150246    1403.1379 
   97600   -1798209.9    37824.227    36778.311   -75032.498   -7.5092107   -31.228434   -445.59102    76.914057    88.813394    81.150246    1392.1227 
   97700   -1798226.8    37292.064    37632.637   -74379.192    484.83701   -28.784215    117.96203    76.914057    88.813394    81.150246    1394.2822 
   97800   -1798264.3    37913.243    37395.921   -74557.917    97.894201   -356.77739   -313.23787    76.914057    88.813394    81.150246    1403.0566 
   97900   -1798214.7    37482.732    37828.032   -74813.146   -1023.7847    249.60912   -442.54172    76.914057    88.813394    81.150246    1401.6567 
   98000   -1798201.1    38562.684    38084.297   -74182.792   -453.71006    17.618879   -376.45294    76.914057    88.813394    81.150246    1404.5109 
   98100   -1798280.7    37801.905    35707.014   -75607.761    58.756869   -447.60806    839.76309    76.914057    88.813394    81.150246    1399.1399 
   98200   -1798243.9     37455.33    38073.986    -75144.16   -271.19927    460.72737    40.948719    76.914057    88.813394    81.150246    1392.7003 
   98300   -1798273.2    38247.213    36791.652   -74868.311   -895.26344   -620.24646    3.1222259    76.914057    88.813394    81.150246    1390.0728 
   98400   -1798237.4    37911.176    37844.261    -74736.55    65.739416   -556.93698   -55.117603    76.914057    88.813394    81.150246     1398.409 
   98500   -1798254.2    37006.532    37862.562   -74476.274   -598.79476     164.0313   -362.51669    76.914057    88.813394    81.150246    1404.1597 
   98600   -1798270.4    38169.497    37589.387   -74623.443    50.229534    537.41452    118.28722    76.914057    88.813394    81.150246    1399.2658 
   98700   -1798229.7    38188.929    36802.485   -75128.234   -684.92474   -678.23403   -790.36597    76.914057    88.813394    81.150246     1401.642 
   98800   -1798291.3    38445.382    36982.798   -74382.804   -99.304283   -272.84397   -141.37468    76.914057    88.813394    81.150246    1405.2555 
   98900   -1798193.4    37388.147    37971.052   -74791.484    -188.2957    177.46577   -668.90529    76.914057    88.813394    81.150246    1398.2934 
   99000   -1798251.3    37637.315    38167.444   -74570.342    -338.3372    234.19771   -125.54403    76.914057    88.813394    81.150246    1398.9395 
   99100   -1798228.3    38423.496    37377.742   -74958.476   -333.19426   -394.33455    81.740389    76.914057    88.813394    81.150246    1400.9544 
   99200   -1798163.5    38952.778    38052.782   -73887.138    82.032041    330.72554   -144.19891    76.914057    88.813394    81.150246    1406.0143 
   99300   -1798268.8    37762.206    37517.511   -75037.513    142.87011   -307.87178   -280.21439    76.914057    88.813394    81.150246    1409.8264 
   99400     -1798257     37832.09    37561.593   -75095.854    95.446948    218.12877    382.61606    76.914057    88.813394    81.150246     1406.057 
   99500   -1798198.8    38283.559    37815.035   -74395.318    277.66125    68.900866    -103.8845    76.914057    88.813394    81.150246    1402.4644 
   99600   -1798233.2     38577.83    38307.966   -74216.665   -702.42237   -148.40345    163.93578    76.914057    88.813394    81.150246    1393.5739 
   99700   -1798238.8    37870.341    38461.729   -75340.595    89.682066   -419.43537      125.475    76.914057    88.813394    81.150246     1404.758 
   99800     -1798257    37395.567    36855.257   -74716.245     95.17685    186.95113    206.18729    76.914057    88.813394    81.150246     1402.753 
   99900     -1798271     37454.65    38119.543   -74483.441   -193.46667   -301.17506    344.96704    76.914057    88.813394    81.150246    1402.1929 
  100000   -1798212.9    37548.215    38312.044   -74622.589   -101.35192    143.62963   -548.19211    76.914057    88.813394    81.150246    1400.7863 
  100083   -1798257.5     37542.85    37400.901   -74279.326   -30.180521    382.49906    285.23212    76.914057    88.813394    81.150246    1386.7417 
Loop time of 5832.27 on 15 procs for 50000 steps with 58365 atoms

Pair  time (%) = 4347.02 (74.5339)
Kspce time (%) = 1321.69 (22.6616)
Neigh time (%) = 55.9654 (0.959583)
Comm  time (%) = 77.5556 (1.32977)
Outpt time (%) = 0.431135 (0.00739223)
Other time (%) = 29.6131 (0.507746)

Nlocal:    3891 ave 3927 max 3818 min
Histogram: 1 1 1 0 0 2 2 2 2 4
Nghost:    18579.1 ave 18708 max 18452 min
Histogram: 5 1 0 0 0 0 2 4 1 2
Neighs:    1.50392e+06 ave 1.55299e+06 max 1.45303e+06 min
Histogram: 2 0 1 2 2 3 2 0 1 2

Total # of neighbors = 22558778
Ave neighs/atom = 386.512
Neighbor list builds = 912
Dangerous builds = 0
unfix   2


write_data NPT_relaxed_1400.data
PPPM initialization ...
  G vector (1/distance) = 0.309148
  grid = 72 80 75
  stencil order = 5
  estimated absolute RMS force accuracy = 0.00177248
  estimated relative force accuracy = 0.000123092
  using double precision FFTs
  3d grid and FFT values/proc = 58144 28800

