

variable      mytemp equal  2000

# -------------------- FORCE FIELDS ----------------------
pair_style buck/coul/long 10.0 10.0

read_data	NPT_relaxed_2000.data
  orthogonal box = (0.034204 0.0394957 0.0360878) to (77.2668 89.2207 81.5224)
  1 by 7 by 1 MPI processor grid
  reading atoms ...
  58275 atoms
  reading velocities ...
  58275 velocities

pair_coeff    * * 1e-30 1e-30 0.0
pair_coeff    1 2 1204.18 0.3165   0.0
pair_coeff    1 1 9547.96 0.21916  32.0

kspace_style    pppm 0.0001

## Define group
group oxygen type 1
34965 atoms in group oxygen
group chromium type 2
23310 atoms in group chromium


## --------------------- NVT  --------------------
compute allmsd all displace/atom

#dump          2 all custom 25000  dump/dump id type xu yu zu c_allmsd[1] c_allmsd[2] c_allmsd[3] c_allmsd[4]
#dump          1 all xyz 25000 xyz/all.xyz
#dump_modify   1 element O Cr



compute   Omsd oxygen msd com yes
compute   Crmsd chromium msd com yes
variable  OMSDX equal "c_Omsd[1]"
variable  OMSDY equal "c_Omsd[2]"
variable  OMSDZ equal "c_Omsd[3]"
variable  OMSDAll equal "c_Omsd[4]"

variable  CrMSDX equal "c_Crmsd[1]"
variable  CrMSDY equal "c_Crmsd[2]"
variable  CrMSDZ equal "c_Crmsd[3]"
variable  CrMSDAll equal "c_Crmsd[4]"

thermo          1000
thermo_style    custom step pe ke press lx ly lz temp c_Omsd[1]  c_Omsd[2]  c_Omsd[3]  c_Omsd[4]  c_Crmsd[1]  c_Crmsd[2]  c_Crmsd[3]  c_Crmsd[4]


fix          1 all print 100 "${OMSDX}   ${OMSDY}   ${OMSDZ}  ${OMSDAll}  ${CrMSDX}   ${CrMSDY}   ${CrMSDZ}  ${CrMSDAll}" file MSD2000.data screen no
fix          3 all nvt temp ${mytemp} ${mytemp} 0.01
fix          3 all nvt temp 2000 ${mytemp} 0.01
fix          3 all nvt temp 2000 2000 0.01

run      1000000
PPPM initialization ...
  G vector (1/distance) = 0.308765
  grid = 72 80 75
  stencil order = 5
  estimated absolute RMS force accuracy = 0.00179616
  estimated relative force accuracy = 0.000124736
  using double precision FFTs
  3d grid and FFT values/proc = 123082 64800
Memory usage per processor = 22.5239 Mbytes
Step PotEng KinEng Press Lx Ly Lz Temp Omsd[1] Omsd[2] Omsd[3] Omsd[4] Crmsd[1] Crmsd[2] Crmsd[3] Crmsd[4] 
       0   -1790407.6     15024.46    -2156.898    77.232592    89.181209    81.486324    1994.6164 5.0772997e-29 2.0194839e-28 4.5481851e-28 7.0753989e-28 5.0801153e-29 1.0385484e-28 5.0937605e-29 2.055936e-28 
    1000   -1790378.4    15105.688   -1495.1538    77.232592    89.181209    81.486324    2005.4001   0.03894788  0.042065835  0.054462487    0.1354762  0.031857511  0.034952654  0.043852449   0.11066261 
    2000   -1790477.7    15069.547    -3368.038    77.232592    89.181209    81.486324    2000.6021  0.039403712  0.039486411  0.051140639   0.13003076  0.032121206  0.031754652  0.040752692   0.10462855 
    3000   -1790349.9    15143.284   -1560.1569    77.232592    89.181209    81.486324    2010.3913  0.040074232  0.040150736  0.051014427    0.1312394  0.032524997  0.032081652  0.040354652    0.1049613 
    4000   -1790356.2     15018.72   -1849.9374    77.232592    89.181209    81.486324    1993.8544  0.039562441  0.040417965   0.05238006   0.13236047  0.031386129  0.032062754  0.041716592   0.10516548 
    5000   -1790502.5    15065.288   -2612.9491    77.232592    89.181209    81.486324    2000.0368    0.0388224  0.039889004  0.050603232   0.12931464  0.030896415  0.031621964  0.039736054   0.10225443 
    6000   -1790509.5    15063.123   -2930.9495    77.232592    89.181209    81.486324    1999.7492  0.039680144  0.041732198   0.05130509   0.13271743   0.03133391  0.032953511  0.040292429   0.10457985 
    7000   -1790456.9    15107.278   -2359.7256    77.232592    89.181209    81.486324    2005.6112  0.039525578  0.040389292  0.051040961   0.13095583  0.031230276  0.030885527  0.040429619   0.10254542 
    8000   -1790526.3    15069.641   -2690.0528    77.232592    89.181209    81.486324    2000.6146  0.040429242  0.042704525  0.051979147   0.13511291  0.032333186  0.033897027  0.041924494   0.10815471 
    9000   -1790435.2    15003.549   -2779.2478    77.232592    89.181209    81.486324    1991.8404  0.039543741  0.040211862  0.049929769   0.12968537  0.031384745  0.030943266  0.039757029   0.10208504 
   10000   -1790467.2     14950.56   -3252.9311    77.232592    89.181209    81.486324    1984.8056  0.040032706  0.042241609  0.052196281    0.1344706  0.030867657  0.032221109  0.041121541   0.10421031 
   11000   -1790485.5    15073.577   -2450.0674    77.232592    89.181209    81.486324    2001.1371  0.042052158   0.04148388   0.05067219   0.13420823  0.033482976  0.031720516  0.039725428   0.10492892 
   12000   -1790488.6    15034.878   -2366.5897    77.232592    89.181209    81.486324    1995.9995  0.040885917    0.0412308  0.052106215   0.13422293  0.031486422  0.031863428  0.041067466   0.10441732 
   13000   -1790432.8    14948.033   -2468.5303    77.232592    89.181209    81.486324    1984.4702  0.041237756  0.041811472  0.051505656   0.13455488  0.032750116  0.033017407  0.041273933   0.10704146 
   14000   -1790506.9    15002.036   -2785.4468    77.232592    89.181209    81.486324    1991.6395  0.039400848  0.040326223  0.051679594   0.13140667   0.03063272  0.031664658   0.04116473   0.10346211 
   15000   -1790486.7    15029.717   -2466.1435    77.232592    89.181209    81.486324    1995.3144  0.041062433  0.041759573  0.052409572   0.13523158  0.031724057  0.033573137  0.040473248   0.10577044 
   16000   -1790531.1     15130.28   -2617.3915    77.232592    89.181209    81.486324    2008.6649  0.040305554   0.03984508  0.052006705   0.13215734  0.030999828  0.031075389  0.041827273   0.10390249 
   17000   -1790365.8      15105.8   -1559.5984    77.232592    89.181209    81.486324     2005.415  0.040615555  0.042241652  0.051951928   0.13480913  0.031373222   0.03284388  0.040850859   0.10506796 
   18000   -1790339.4    15111.954   -2080.2993    77.232592    89.181209    81.486324     2006.232  0.041286049  0.040846797  0.052713187   0.13484603  0.031808171  0.032177598  0.040785076   0.10477085 
   19000   -1790502.8    15162.866   -2179.9292    77.232592    89.181209    81.486324    2012.9909  0.040874064  0.039685804  0.051755577   0.13231544  0.031499184  0.031519709  0.040588103     0.103607 
   20000   -1790481.4    15139.569   -2425.1042    77.232592    89.181209    81.486324    2009.8982  0.041600023  0.042579337  0.050786991   0.13496635  0.032676441  0.033758561  0.040102786   0.10653779 
   21000   -1790479.4    15049.985   -2262.5452    77.232592    89.181209    81.486324    1998.0051    0.0400611  0.041304845  0.051371241   0.13273719  0.031348366  0.032249906  0.040400658   0.10399893 
   22000   -1790505.1    15076.357   -2602.3659    77.232592    89.181209    81.486324    2001.5063  0.039311802  0.042643734  0.051604871   0.13356041  0.030800642  0.033963471  0.040757087    0.1055212 
   23000   -1790428.1    15091.324    -2568.121    77.232592    89.181209    81.486324    2003.4932   0.04032179  0.040441349  0.052860777   0.13362392  0.031624646   0.03114049  0.040785023   0.10355016 
   24000   -1790403.4    15071.025   -1677.0904    77.232592    89.181209    81.486324    2000.7983  0.040683759  0.041990309  0.052437435    0.1351115  0.032596857  0.033077648    0.0409681    0.1066426 
   25000   -1790541.5    15106.703   -2457.8716    77.232592    89.181209    81.486324    2005.5349  0.040701588  0.042697292  0.051875235   0.13527411  0.031652998  0.032374026  0.040503776    0.1045308 
   26000   -1790528.9    15044.003   -2898.7331    77.232592    89.181209    81.486324     1997.211  0.040829525  0.041682027  0.054316299   0.13682785  0.031626376  0.031504079   0.04299076   0.10612121 
   27000   -1790380.3    15071.578   -2234.1523    77.232592    89.181209    81.486324    2000.8718  0.041332871   0.04322242  0.051859644   0.13641494  0.031950162  0.033855049  0.040634454   0.10643966 
   28000   -1790441.3     14938.69   -2685.2398    77.232592    89.181209    81.486324    1983.2299   0.04149731  0.041965026   0.05465959   0.13812193   0.03202464  0.032533097  0.042229195   0.10678693 
   29000   -1790561.2    15072.069   -2961.5847    77.232592    89.181209    81.486324    2000.9369   0.04090603   0.04216459  0.052927536   0.13599816  0.031547871  0.032780692  0.041464259   0.10579282 
   30000   -1790564.5    15080.488   -3429.2478    77.232592    89.181209    81.486324    2002.0546  0.041143997  0.041774835  0.052846869    0.1357657  0.032365891  0.032479405  0.040887325   0.10573262 
   31000     -1790482      15032.2   -2509.5244    77.232592    89.181209    81.486324     1995.644  0.041370884  0.042181465   0.05282338   0.13637573  0.031887213  0.032751695  0.040993198   0.10563211 
   32000   -1790619.5    14980.476   -3962.2786    77.232592    89.181209    81.486324    1988.7772  0.041461871  0.042379701  0.052231874   0.13607345  0.032355795  0.032816279  0.040862326    0.1060344 
   33000     -1790411    15043.805   -1868.3786    77.232592    89.181209    81.486324    1997.1847  0.041958197  0.041993091  0.052598124   0.13654941  0.032562666  0.032578239  0.041039375   0.10618028 
   34000   -1790490.5    15052.208   -2030.4267    77.232592    89.181209    81.486324    1998.3002  0.041007815  0.042269408  0.052570926   0.13584815  0.031363311  0.032538168  0.041519122    0.1054206 
   35000   -1790394.5    15088.602   -1532.9152    77.232592    89.181209    81.486324    2003.1319  0.041739634  0.042247308  0.052492018   0.13647896  0.032057807  0.032683683  0.041055037   0.10579653 
   36000   -1790405.2    15061.508   -1307.7251    77.232592    89.181209    81.486324     1999.535  0.042583657   0.04162755  0.053283522   0.13749473  0.033515649  0.032742816  0.041635635    0.1078941 
   37000   -1790461.1    15069.715   -2217.6569    77.232592    89.181209    81.486324    2000.6245   0.04262358  0.041921655  0.053137323   0.13768256  0.033221391  0.032220428  0.042326684    0.1077685 
   38000   -1790537.6    15028.682    -2878.177    77.232592    89.181209    81.486324     1995.177  0.041182963  0.042338779  0.052567339   0.13608908  0.031571899  0.032515455   0.04171758   0.10580493 
   39000   -1790470.2    15021.029   -2246.6774    77.232592    89.181209    81.486324     1994.161  0.041729261  0.042623842  0.054488417   0.13884152   0.03241621  0.032623267  0.042632275   0.10767175 
   40000   -1790576.2      15021.1   -2770.6865    77.232592    89.181209    81.486324    1994.1704  0.041917862  0.042737258  0.053002893   0.13765801  0.032540196  0.032468444  0.041450038   0.10645868 
   41000   -1790515.7    15125.414   -2956.2183    77.232592    89.181209    81.486324    2008.0189  0.043360342  0.042725583  0.054839796   0.14092572  0.033450645  0.032145898  0.043921973   0.10951852 
   42000   -1790490.8    15045.534   -2621.8749    77.232592    89.181209    81.486324    1997.4142  0.041224267  0.042556136  0.052281435   0.13606184  0.031499977  0.032436078  0.041287362   0.10522342 
   43000   -1790444.7     15143.51   -2509.3137    77.232592    89.181209    81.486324    2010.4213  0.041237899    0.0433134   0.05360307   0.13815437  0.031779577  0.032864735  0.041761724   0.10640604 
   44000   -1790406.9     15174.77    -1856.828    77.232592    89.181209    81.486324    2014.5714   0.04091668  0.043403172  0.054432712   0.13875256  0.031572606  0.033293693  0.042739693   0.10760599 
   45000   -1790457.6    15086.638     -2789.25    77.232592    89.181209    81.486324    2002.8711  0.041432707  0.042809162  0.052588218   0.13683009  0.032432237  0.033158728  0.041990165   0.10758113 
   46000     -1790418     15061.11   -2427.9615    77.232592    89.181209    81.486324     1999.482  0.042193154  0.042803793  0.054993652    0.1399906  0.031873959  0.031817493  0.042650494   0.10634195 
   47000   -1790531.1    15134.727   -3011.4398    77.232592    89.181209    81.486324    2009.2553  0.041578571  0.043292727  0.052813739   0.13768504  0.032344792  0.033739092  0.041210565   0.10729445 
   48000   -1790446.9    15074.154   -2588.2049    77.232592    89.181209    81.486324    2001.2138  0.041782675  0.042457045  0.053818072   0.13805779  0.032300044  0.032959493  0.042149491   0.10740903 
   49000   -1790465.2    15051.198   -2474.1276    77.232592    89.181209    81.486324    1998.1661  0.041338488  0.043308068  0.053449966   0.13809652  0.032293834  0.033006944  0.041732992   0.10703377 
   50000   -1790470.4     15067.01    -2817.063    77.232592    89.181209    81.486324    2000.2653  0.043518423  0.043359479  0.052206013   0.13908391  0.032560528    0.0328076  0.040425392   0.10579352 
   51000   -1790401.3    15087.099   -1810.9336    77.232592    89.181209    81.486324    2002.9324  0.041335618  0.043706532  0.053061386   0.13810354  0.032032355  0.032606036  0.041744793   0.10638318 
   52000   -1790495.5    15141.127   -2717.4746    77.232592    89.181209    81.486324     2010.105  0.041546838  0.043252067   0.05277222   0.13757113  0.031384401  0.032586543  0.041279744   0.10525069 
   53000     -1790482    15124.536   -2241.7688    77.232592    89.181209    81.486324    2007.9024  0.041815815  0.043355397    0.0520535   0.13722471  0.032875549  0.032418165  0.040498344   0.10579206 
   54000   -1790468.6    14944.357   -2509.6294    77.232592    89.181209    81.486324    1983.9822   0.04233077   0.04300638  0.053204606   0.13854176  0.033081235   0.03230539  0.041712843   0.10709947 
   55000   -1790399.8    15103.176    -2515.073    77.232592    89.181209    81.486324    2005.0667  0.042020033   0.04315017  0.052861582   0.13803179  0.032650546  0.033285483  0.042049069    0.1079851 
   56000   -1790432.3    15052.984   -2264.3837    77.232592    89.181209    81.486324    1998.4032  0.042582476  0.043434657  0.053018063    0.1390352  0.032627264  0.032620264   0.04212717    0.1073747 
   57000   -1790548.7    15117.927   -2260.9737    77.232592    89.181209    81.486324     2007.025  0.041547425  0.042561176  0.051825728   0.13593433   0.03196982  0.032081822  0.040875538   0.10492718 
   58000   -1790526.3    15046.303   -3077.2871    77.232592    89.181209    81.486324    1997.5163  0.041898775  0.043878392  0.053958854   0.13973602    0.0324623  0.033819408  0.042074267   0.10835598 
   59000   -1790536.7    15007.098   -2829.6797    77.232592    89.181209    81.486324    1992.3115  0.042790886  0.043522182  0.053153552   0.13946662  0.033252577   0.03354469  0.042497451   0.10929472 
   60000   -1790592.1    15057.427    -3234.088    77.232592    89.181209    81.486324    1998.9931  0.041250715   0.04349907  0.053899946   0.13864973  0.032517374  0.032871884   0.04158935   0.10697861 
   61000   -1790471.9    15026.815   -2672.4695    77.232592    89.181209    81.486324    1994.9291  0.041965255  0.043473751   0.05382417   0.13926318  0.033005623   0.03312027  0.042257439   0.10838333 
   62000   -1790414.8    15110.097   -1750.6233    77.232592    89.181209    81.486324    2005.9855  0.042320595  0.043746506   0.05570078   0.14176788  0.032320674  0.033831251  0.043198784   0.10935071 
   63000   -1790419.2    15009.045   -2380.6027    77.232592    89.181209    81.486324      1992.57  0.042248021  0.042946493  0.053711276   0.13890579  0.033045933  0.032082171  0.041289085   0.10641719 
   64000   -1790473.3    14998.361   -2629.6856    77.232592    89.181209    81.486324    1991.1517  0.041814357  0.044686124  0.054587454   0.14108793   0.03173668  0.033243547  0.041855259   0.10683549 
   65000   -1790491.5     15048.13   -3222.3385    77.232592    89.181209    81.486324    1997.7589  0.042207088   0.04379673  0.053747337   0.13975115  0.032546912  0.032695092  0.042048916   0.10729092 
   66000     -1790441    15081.736   -2238.0119    77.232592    89.181209    81.486324    2002.2203  0.041759915  0.043597605  0.055672072   0.14102959  0.031611816  0.032309945   0.04169973   0.10562149 
   67000     -1790469    15048.007   -2533.3051    77.232592    89.181209    81.486324    1997.7426  0.042095296  0.043601649  0.053554404   0.13925135  0.032145394  0.033637776  0.042545737   0.10832891 
   68000     -1790465    15014.868   -2542.2798    77.232592    89.181209    81.486324    1993.3431  0.043517166  0.043706681  0.054337078   0.14156092  0.033273548  0.033425341  0.041311188   0.10801008 
   69000   -1790457.4    15025.322   -2936.1559    77.232592    89.181209    81.486324    1994.7309  0.042444143  0.044319986  0.055378529   0.14214266  0.031922189  0.033794812  0.042631054   0.10834806 
   70000   -1790366.7    14995.021   -2729.9178    77.232592    89.181209    81.486324    1990.7083  0.042611311  0.044169737  0.054178461   0.14095951  0.032068973  0.032947587  0.042222975   0.10723954 
   71000   -1790498.5    15090.566   -3192.5476    77.232592    89.181209    81.486324    2003.3926  0.042505915  0.044187833  0.053362022   0.14005577  0.033086474  0.033836522  0.041794085   0.10871708 
   72000   -1790453.3    15148.816   -2473.9506    77.232592    89.181209    81.486324    2011.1258  0.042007628  0.044045527  0.054506661   0.14055982  0.032311486  0.033846819  0.042872204   0.10903051 
   73000   -1790559.3     15105.64   -2868.3118    77.232592    89.181209    81.486324    2005.3938  0.041885841  0.043484896  0.053284592   0.13865533  0.032555688  0.033405646   0.04142732   0.10738865 
   74000   -1790507.1     15154.14   -2213.2274    77.232592    89.181209    81.486324    2011.8325  0.042338538  0.044122283  0.055459961   0.14192078  0.032880959  0.033012117  0.042130771   0.10802385 
   75000   -1790402.1    15091.463   -2487.5121    77.232592    89.181209    81.486324    2003.5117  0.042620112  0.044314104  0.055773742   0.14270796  0.032453542  0.034037116  0.042574532   0.10906519 
   76000   -1790506.6    15092.765   -1786.6365    77.232592    89.181209    81.486324    2003.6845  0.042651604   0.04446732  0.054291943   0.14141087  0.032849809  0.033255955  0.041410212   0.10751598 
   77000   -1790532.6    15108.403   -2682.7062    77.232592    89.181209    81.486324    2005.7606  0.042441546  0.045055039  0.056178883   0.14367547  0.031961631  0.033088046   0.04310191   0.10815159 
   78000   -1790491.9    15086.135   -2363.4517    77.232592    89.181209    81.486324    2002.8044  0.042878944  0.045794009  0.054927515   0.14360047  0.032516531   0.03467713  0.041620145   0.10881381 
   79000   -1790460.2    15030.193   -2365.8286    77.232592    89.181209    81.486324    1995.3776  0.042642303  0.043643132  0.054174777   0.14046021   0.03302566  0.032530091  0.041524914   0.10708066 
   80000   -1790500.7    15104.205   -2841.3121    77.232592    89.181209    81.486324    2005.2033  0.044111521  0.044360769   0.05666708   0.14513937  0.033297138  0.033088848  0.043089876   0.10947586 
   81000   -1790441.5    15108.904   -2237.6884    77.232592    89.181209    81.486324     2005.827   0.04349308  0.045553886   0.05508901   0.14413598  0.032512663  0.033767109  0.041147316   0.10742709 
   82000   -1790459.8    15009.456   -2875.3849    77.232592    89.181209    81.486324    1992.6246  0.044923637  0.043739112  0.056600996   0.14526374  0.032147221  0.031872462  0.041977084   0.10599677 
   83000   -1790475.3    15057.339   -2918.0097    77.232592    89.181209    81.486324    1998.9815  0.045063685  0.045462122  0.055581526   0.14610733  0.032779818  0.033545493  0.041786541   0.10811185 
   84000   -1790431.4    15051.135   -2865.8096    77.232592    89.181209    81.486324    1998.1579  0.043678061  0.045770158  0.054231658   0.14367988  0.032649623  0.033521475  0.041062232   0.10723333 
   85000   -1790389.5    15058.721   -2229.1877    77.232592    89.181209    81.486324    1999.1648  0.045036997  0.046354496  0.057376443   0.14876794  0.033262744  0.034035641  0.043602706   0.11090109 
   86000   -1790482.4    15148.065   -2358.6663    77.232592    89.181209    81.486324     2011.026  0.046437853  0.044027977    0.0546654   0.14513123   0.03429405  0.032888828  0.041137759   0.10832064 
   87000   -1790450.8    15029.584   -2188.8309    77.232592    89.181209    81.486324    1995.2967  0.045401443  0.045817251   0.05567403   0.14689272  0.033023864  0.033798517  0.042228512   0.10905089 
   88000   -1790471.1    15062.241   -2684.4206    77.232592    89.181209    81.486324    1999.6322  0.044685651  0.044786642  0.056164542   0.14563683  0.033320141  0.033175129  0.042634449   0.10912972 
   89000     -1790486    15121.696   -2953.8084    77.232592    89.181209    81.486324    2007.5254  0.044916877   0.04461272  0.054770252   0.14429985  0.033708994  0.033189329  0.040780275    0.1076786 
   90000   -1790523.8    15090.877   -2743.7656    77.232592    89.181209    81.486324    2003.4339  0.044015456  0.045906385  0.057224739   0.14714658  0.032381428  0.034459137  0.044050282   0.11089085 
   91000   -1790404.7    15081.098   -1522.6459    77.232592    89.181209    81.486324    2002.1356  0.044833343  0.044433202  0.057004401   0.14627095  0.033195584  0.033236687  0.042991918   0.10942419 
   92000   -1790537.3    15037.819   -3534.0414    77.232592    89.181209    81.486324    1996.3901  0.045035314  0.045150766  0.055969165   0.14615525  0.034474435  0.033707133  0.042878334    0.1110599 
   93000   -1790416.6    14980.142   -2452.9599    77.232592    89.181209    81.486324    1988.7329  0.043836385  0.045883945  0.057153453   0.14687378  0.033498609  0.033534474  0.043078132   0.11011121 
   94000   -1790458.4    15091.614   -2350.1251    77.232592    89.181209    81.486324    2003.5317  0.043838608  0.045905731  0.057333541   0.14707788  0.032532258  0.032916078  0.043865147   0.10931348 
   95000   -1790470.1    15095.382   -2098.6565    77.232592    89.181209    81.486324    2004.0319  0.044082387  0.045267161  0.058003828   0.14735338  0.033852758  0.033028643  0.044388988   0.11127039 
   96000   -1790508.2    15007.233   -3158.5708    77.232592    89.181209    81.486324    1992.3295  0.045029521  0.046401291  0.054540813   0.14597162   0.03415758   0.03430284  0.041230683    0.1096911 
   97000   -1790520.7    15110.141   -2068.3256    77.232592    89.181209    81.486324    2005.9913  0.043654831  0.045720219  0.055928501   0.14530355  0.032622294  0.034002567  0.043114185   0.10973905 
   98000   -1790483.8    14943.087   -3064.0601    77.232592    89.181209    81.486324    1983.8136  0.044006261  0.046028876   0.05480621   0.14484135  0.033622581   0.03403652  0.042805689   0.11046479 
   99000   -1790484.5    15068.454   -2098.2347    77.232592    89.181209    81.486324    2000.4571  0.042726411  0.045578434  0.054669657    0.1429745  0.032586286  0.034673877  0.042719392   0.10997956 
  100000   -1790475.2    15071.843   -2111.1619    77.232592    89.181209    81.486324     2000.907  0.044974398  0.045573669  0.056506931     0.147055  0.033789106  0.034330138  0.043195134   0.11131438 
  101000   -1790494.7    15135.619   -2148.6948    77.232592    89.181209    81.486324    2009.3737  0.045799599  0.043992817  0.055742368   0.14553478  0.034160879  0.032770853   0.04243481   0.10936654 
  102000   -1790486.8    15115.432   -2509.3167    77.232592    89.181209    81.486324    2006.6937  0.044477256    0.0450659   0.05599019   0.14553335  0.033051092  0.033659211  0.042745395    0.1094557 
  103000   -1790424.6    15076.114    -2244.956    77.232592    89.181209    81.486324     2001.474  0.044278826  0.045210193  0.056084389   0.14557341  0.033011635  0.033847008  0.042139176   0.10899782 
  104000   -1790430.3    15117.723   -1696.9382    77.232592    89.181209    81.486324    2006.9979  0.046241871    0.0464976   0.05726916   0.15000863  0.034942205  0.034417784  0.043430509    0.1127905 
  105000   -1790411.8    15154.957   -2089.3945    77.232592    89.181209    81.486324    2011.9409  0.044376573  0.045917972  0.058134431   0.14842898  0.033181675  0.033994995  0.044460254   0.11163692 
  106000   -1790507.4    15019.551   -2708.0209    77.232592    89.181209    81.486324    1993.9648  0.044475862  0.046416166  0.056453032   0.14734506  0.032480349   0.03396011  0.042765054   0.10920551 
  107000   -1790522.6    15040.011   -2834.6545    77.232592    89.181209    81.486324    1996.6811  0.045882759  0.045043153  0.057055086     0.147981   0.03421899  0.033425227  0.043716732   0.11136095 
  108000   -1790520.2    15124.841   -2998.2205    77.232592    89.181209    81.486324    2007.9428  0.044846461   0.04653572  0.055568295   0.14695048  0.033770367  0.035131567  0.042261193   0.11116313 
  109000   -1790500.4    15097.401   -2534.0038    77.232592    89.181209    81.486324       2004.3  0.044852425  0.044185297  0.056792537   0.14583026  0.034333158  0.032425487  0.042633958    0.1093926 
  110000     -1790417    15007.337   -2487.8632    77.232592    89.181209    81.486324    1992.3432  0.044716952  0.046706286  0.056586441   0.14800968  0.033276111  0.034542126  0.042926861    0.1107451 
  111000   -1790583.7    15075.708   -3198.3704    77.232592    89.181209    81.486324      2001.42  0.043395872  0.046609178  0.056180306   0.14618536  0.032175681  0.034234857  0.041912664    0.1083232 
  112000   -1790526.3    15033.371   -3563.6426    77.232592    89.181209    81.486324    1995.7995  0.044794651  0.045960936  0.056638746   0.14739433  0.033318779  0.033827706  0.042291252   0.10943774 
  113000   -1790512.9    15142.326   -2123.3976    77.232592    89.181209    81.486324    2010.2641  0.045047176   0.04642014  0.056004355   0.14747167  0.034553988  0.033940389  0.042854293   0.11134867 
  114000     -1790489    14981.388   -2212.7837    77.232592    89.181209    81.486324    1988.8984  0.044343522  0.045105064  0.057233902   0.14668249  0.033616903  0.032805688  0.043169453   0.10959204 
  115000   -1790439.2    14992.698   -2892.6011    77.232592    89.181209    81.486324    1990.3998  0.044657553  0.045666116  0.056212761   0.14653643  0.033562833  0.033636204  0.042757651   0.10995669 
  116000   -1790416.9    15072.946   -2433.7738    77.232592    89.181209    81.486324    2001.0534  0.045366077  0.046251975  0.057030331   0.14864838  0.033853223  0.033033884  0.043147381   0.11003449 
  117000   -1790438.1    15096.191   -3004.8192    77.232592    89.181209    81.486324    2004.1393  0.044492719  0.045757842  0.056439735    0.1466903  0.032716618  0.033703853  0.042851874   0.10927234 
  118000   -1790579.5    15180.778   -2822.1376    77.232592    89.181209    81.486324    2015.3689  0.044548428  0.045172013  0.056030878   0.14575132  0.033241826  0.032885264  0.042207413    0.1083345 
  119000   -1790467.1    15068.172   -2150.3917    77.232592    89.181209    81.486324    2000.4196  0.045105062  0.046080833  0.055882936   0.14706883  0.033313258  0.033588952  0.042800108   0.10970232 
  120000   -1790594.5    15126.487   -3562.0763    77.232592    89.181209    81.486324    2008.1613  0.044380966  0.047128286  0.057114376   0.14862363  0.032848069  0.034006628  0.043082872   0.10993757 
  121000   -1790405.7    15040.578   -2358.0677    77.232592    89.181209    81.486324    1996.7563  0.045502833   0.04649327  0.056211718   0.14820782  0.033807496  0.032750055  0.042371499   0.10892905 
  122000   -1790415.9    15103.946   -2674.3373    77.232592    89.181209    81.486324    2005.1688  0.045526657  0.048288861   0.05659787   0.15041339   0.03385645  0.034618866  0.042500642   0.11097596 
  123000   -1790466.5    15116.877   -2758.3703    77.232592    89.181209    81.486324    2006.8855  0.044093447  0.045332021  0.057302937    0.1467284  0.033059605  0.031902606  0.043505614   0.10846782 
  124000   -1790423.3    15070.081    -2560.742    77.232592    89.181209    81.486324     2000.673  0.044253126  0.046809191  0.056996125   0.14805844  0.033183018  0.033855202  0.042455307   0.10949353 
  125000     -1790502    15041.322   -3070.8109    77.232592    89.181209    81.486324     1996.855  0.044621168  0.046192709  0.058378295   0.14919217  0.032960104  0.032842536  0.042955487   0.10875813 
  126000     -1790475    15075.176   -2420.4914    77.232592    89.181209    81.486324    2001.3494  0.044787668  0.046676352  0.056986555   0.14845057  0.033575035   0.03345907  0.042198528   0.10923263 
  127000   -1790472.1    15019.309   -3099.8689    77.232592    89.181209    81.486324    1993.9326  0.044645753  0.046631456  0.057734363   0.14901157  0.032900127  0.033180687  0.042713739   0.10879455 
  128000     -1790502    15055.291   -2687.8228    77.232592    89.181209    81.486324    1998.7096  0.044148252  0.046079282  0.057452331   0.14767986  0.032400231   0.03296915     0.042583   0.10795238 
  129000   -1790399.8    15033.358   -2036.7606    77.232592    89.181209    81.486324    1995.7977  0.045359067  0.046954635  0.056789893   0.14910359  0.033252158  0.034547383  0.042580918   0.11038046 
  130000   -1790517.7    15103.003   -2413.1676    77.232592    89.181209    81.486324    2005.0437  0.044965988  0.045227492  0.056409073   0.14660255  0.033113727  0.032480916  0.043014449   0.10860909 
  131000   -1790516.5    15083.643   -2400.1374    77.232592    89.181209    81.486324    2002.4736  0.044212561  0.046479633   0.05739168   0.14808387  0.032492777  0.033578775  0.042912115   0.10898367 
  132000     -1790478    15024.798   -2407.1639    77.232592    89.181209    81.486324    1994.6614  0.045426917   0.04711126  0.056576089   0.14911427  0.034158185  0.034083898  0.042381107   0.11062319 
  133000   -1790456.6    15143.869   -2314.0175    77.232592    89.181209    81.486324     2010.469  0.044643205   0.04534899  0.057072229   0.14706442  0.033059018   0.03319268  0.043651788   0.10990349 
  134000   -1790506.9    14981.769   -3061.9645    77.232592    89.181209    81.486324    1988.9489  0.045130751  0.045952035  0.056456238   0.14753902  0.033542504  0.033429964  0.042818661   0.10979113 
  135000   -1790399.9    15153.808   -2410.4683    77.232592    89.181209    81.486324    2011.7885  0.043875003   0.04607474  0.058749386   0.14869913  0.032985669  0.032871925  0.043358093   0.10921569 
  136000   -1790365.1    15096.072   -1954.6224    77.232592    89.181209    81.486324    2004.1236  0.044221663  0.047546741  0.056602983   0.14837139   0.03332483  0.034376664  0.042233922   0.10993542 
  137000     -1790385    15012.845   -1361.5742    77.232592    89.181209    81.486324    1993.0745  0.043848805   0.04602426   0.05682652   0.14669959  0.033471531  0.032625841  0.042781474   0.10887885 
  138000   -1790491.3    15130.958   -3188.0826    77.232592    89.181209    81.486324    2008.7549  0.044960641  0.046146396  0.057017905   0.14812494  0.033054734  0.033190865  0.042277678   0.10852328 
  139000   -1790445.9    15031.531   -2374.6764    77.232592    89.181209    81.486324    1995.5552  0.045400917  0.046828373  0.057693475   0.14992277  0.033572097  0.033659725  0.043218727   0.11045055 
  140000   -1790389.8    15109.519   -1174.9794    77.232592    89.181209    81.486324    2005.9088  0.045090175  0.046106513  0.058808064   0.15000475  0.033538199  0.033883929  0.043708755   0.11113088 
  141000     -1790434    15047.408   -1949.2442    77.232592    89.181209    81.486324     1997.663   0.04409662   0.04720342  0.058293389   0.14959343  0.032911301  0.033878614  0.043386454   0.11017637 
  142000   -1790510.4    15014.143   -2876.7198    77.232592    89.181209    81.486324    1993.2469  0.044789296  0.045556386  0.058121266   0.14846695   0.03360089  0.032639129  0.044130177    0.1103702 
  143000   -1790454.6    15013.088   -2588.0578    77.232592    89.181209    81.486324    1993.1068  0.045226054  0.046464778  0.058056479   0.14974731  0.033892042  0.033285846  0.042893861   0.11007175 
  144000   -1790534.1    15113.692   -3253.2496    77.232592    89.181209    81.486324    2006.4627  0.044826399  0.046285316  0.058909325   0.15002104  0.033617149  0.033826084  0.044172248   0.11161548 
  145000   -1790518.6    14976.911    -3303.692    77.232592    89.181209    81.486324     1988.304  0.043990718  0.046812995  0.057861012   0.14866472  0.033318883  0.033724143  0.042504655   0.10954768 
  146000   -1790463.4    15099.151   -2650.2465    77.232592    89.181209    81.486324    2004.5323  0.044843046  0.046625911  0.057684023   0.14915298  0.033498764  0.033804463  0.043022038   0.11032526 
  147000   -1790536.9    14993.384   -3073.4617    77.232592    89.181209    81.486324    1990.4908  0.045735938  0.045543977  0.058041402   0.14932132  0.033470542   0.03280055   0.04316187   0.10943296 
  148000   -1790499.1    15075.444   -2603.1244    77.232592    89.181209    81.486324    2001.3851  0.045912771  0.046168047  0.057274499   0.14935532  0.034516463  0.033167487  0.042860242   0.11054419 
  149000   -1790540.2    15020.323   -2851.6366    77.232592    89.181209    81.486324    1994.0672  0.044695201  0.047250177  0.057170604   0.14911598  0.033698799  0.032949246  0.042652876   0.10930092 
  150000   -1790501.6    15066.558    -2974.757    77.232592    89.181209    81.486324    2000.2053   0.04462891  0.046519378  0.058979773   0.15012806  0.032637503  0.032546156  0.043900195   0.10908385 
  151000   -1790464.5    14995.472   -2658.9775    77.232592    89.181209    81.486324    1990.7682  0.045837238  0.047815876  0.058763149   0.15241626  0.033272974  0.034513637  0.042619161   0.11040577 
  152000   -1790540.8    15031.125   -3137.6144    77.232592    89.181209    81.486324    1995.5014  0.045313404   0.04659055  0.058400089   0.15030404  0.033408393  0.032697708  0.043829261   0.10993536 
  153000   -1790420.7    15008.162   -2235.1687    77.232592    89.181209    81.486324    1992.4528  0.045384693  0.048528479  0.059608467   0.15352164   0.03350819   0.03462937  0.044818489   0.11295605 
  154000   -1790453.6    15091.352   -2598.4092    77.232592    89.181209    81.486324    2003.4969  0.044947976   0.04903325   0.05788799   0.15186922  0.033444039  0.034781326  0.043217105   0.11144247 
  155000   -1790477.2     15104.51   -2293.6829    77.232592    89.181209    81.486324    2005.2438  0.044990602    0.0467617  0.057454487   0.14920679  0.033213371  0.032536198  0.042679652   0.10842922 
  156000   -1790401.2    15052.212   -1971.2161    77.232592    89.181209    81.486324    1998.3008  0.045430853  0.047875993  0.057364175   0.15067102  0.033913196  0.034229247  0.042284025   0.11042647 
  157000   -1790477.1    15140.917   -2543.2226    77.232592    89.181209    81.486324     2010.077  0.045133255   0.04781027  0.057749764   0.15069329   0.03427484  0.033390532  0.043271677   0.11093705 
  158000   -1790498.6    15068.884   -2502.8032    77.232592    89.181209    81.486324    2000.5142  0.043683957  0.047980449  0.057945032   0.14960944  0.033037941  0.033753499  0.042862902   0.10965434 
  159000   -1790464.6    15014.597   -2321.7638    77.232592    89.181209    81.486324    1993.3071  0.044753544  0.046073259  0.057729052   0.14855585  0.033366921  0.032118889  0.042979365   0.10846518 
  160000   -1790500.4    15040.978   -2274.6085    77.232592    89.181209    81.486324    1996.8094  0.045828708  0.048153691  0.057747049   0.15172945  0.033169642  0.033963387  0.042511853   0.10964488 
  161000     -1790443    15066.367   -2870.6144    77.232592    89.181209    81.486324    2000.1799  0.045223385  0.046762515  0.058025485   0.15001138   0.03280855  0.032678996  0.042874317   0.10836186 
  162000   -1790493.5    15092.815   -2028.6071    77.232592    89.181209    81.486324    2003.6911  0.045678469   0.04609075  0.058730071   0.15049929  0.033302548  0.032258778  0.042807511   0.10836884 
  163000   -1790458.8    15044.975   -2943.2005    77.232592    89.181209    81.486324      1997.34  0.045895302  0.047540307  0.058339113   0.15177472  0.034040307  0.033034764  0.043012467   0.11008754 
  164000   -1790549.1    15103.086   -2869.4543    77.232592    89.181209    81.486324    2005.0547  0.045083737  0.047582195  0.058769252   0.15143518  0.033151239    0.0326796  0.043848017   0.10967886 
  165000   -1790529.4    15010.924   -2808.6865    77.232592    89.181209    81.486324    1992.8195  0.046225943  0.047483184  0.058462484   0.15217161  0.033534056  0.033218433   0.04303176   0.10978425 
  166000   -1790430.6    15027.778   -2749.8098    77.232592    89.181209    81.486324    1995.0569  0.045553357   0.04748661  0.058674811   0.15171478   0.03337728  0.033504439  0.042582332   0.10946405 
  167000   -1790482.6    15099.109   -2415.0846    77.232592    89.181209    81.486324    2004.5268  0.046683325  0.048189672   0.05903121   0.15390421  0.033422868  0.033497004  0.042905568   0.10982544 
  168000   -1790558.6    15073.649   -3062.0187    77.232592    89.181209    81.486324    2001.1467  0.046424705  0.046813629  0.058220876   0.15145921  0.033754043  0.032106989  0.041768755   0.10762979 
  169000   -1790407.7    14968.897   -1893.6185    77.232592    89.181209    81.486324      1987.24  0.045954991  0.046860383   0.05881681   0.15163218   0.03316423  0.032345806   0.04202012   0.10753016 
  170000   -1790517.8    14992.492   -2300.5862    77.232592    89.181209    81.486324    1990.3725  0.045837413  0.046932507  0.058681154   0.15145107   0.03322902  0.033414168  0.043728685   0.11037187 
  171000   -1790472.9    15010.072   -2730.5367    77.232592    89.181209    81.486324    1992.7064  0.046147353  0.047840249   0.05850476   0.15249236  0.033632313  0.033459351  0.042717713   0.10980938 
  172000   -1790410.1    15062.286    -1855.175    77.232592    89.181209    81.486324    1999.6382  0.046282776  0.046630671  0.057881027   0.15079447   0.03336769  0.032799563  0.043321832   0.10948909 
  173000   -1790438.1    14966.823   -2491.1224    77.232592    89.181209    81.486324    1986.9647  0.046971917   0.04832631  0.058811806   0.15411003  0.033030192  0.033635833  0.041312315   0.10797834 
  174000   -1790504.6    15072.361   -3065.1373    77.232592    89.181209    81.486324    2000.9757  0.047389461  0.046914366  0.057825776    0.1521296  0.034023109  0.033601175  0.042480507   0.11010479 
  175000   -1790518.1    14951.366   -2903.9718    77.232592    89.181209    81.486324    1984.9127   0.04611885  0.046723165  0.058790912   0.15163293  0.032571247  0.032148881  0.042768369    0.1074885 
  176000     -1790484     15117.04   -1748.5853    77.232592    89.181209    81.486324    2006.9072   0.04764441  0.047493719  0.058081329   0.15321946  0.033646593  0.033283655  0.042403568   0.10933382 
  177000   -1790530.6    15032.013   -2872.8523    77.232592    89.181209    81.486324    1995.6192  0.047557873  0.047148154  0.059667236   0.15437326  0.033647949   0.03312225  0.043071887   0.10984209 
  178000   -1790484.1    15110.031   -2107.6862    77.232592    89.181209    81.486324    2005.9767  0.048052207  0.046854429   0.05896967   0.15387631  0.033734838  0.032452804  0.043022253    0.1092099 
  179000   -1790465.4    15089.301   -2229.6187    77.232592    89.181209    81.486324    2003.2246  0.047877767  0.046979633  0.059037672   0.15389507   0.03333195  0.033531955  0.043166639   0.11003054 
  180000   -1790525.4    15176.512   -2651.0726    77.232592    89.181209    81.486324    2014.8027  0.047347624  0.046934004  0.059972182   0.15425381  0.034125914   0.03348587  0.043230668   0.11084245 
  181000   -1790518.1    15058.127   -2590.6051    77.232592    89.181209    81.486324     1999.086  0.047034819  0.049218935  0.060921721   0.15717547  0.033315558  0.035182732  0.044397112    0.1128954 
  182000   -1790510.5    15049.121   -2403.8942    77.232592    89.181209    81.486324    1997.8904  0.047237576  0.047388063  0.057805043   0.15243068  0.033591084  0.033570115  0.042314982   0.10947618 
  183000   -1790355.4    15045.481   -1440.5915    77.232592    89.181209    81.486324    1997.4072  0.046905255   0.04818698  0.062048363    0.1571406   0.03396365  0.034427084  0.045629254   0.11401999 
  184000   -1790412.1    14956.844   -1635.0849    77.232592    89.181209    81.486324    1985.6399  0.046804367   0.04742356   0.05969496   0.15392289  0.033969946  0.033115122  0.043596828    0.1106819 
  185000   -1790502.4    15037.964   -2653.9624    77.232592    89.181209    81.486324    1996.4092  0.046437787  0.047212307  0.059351868   0.15300196  0.033659211  0.033499426  0.043238937   0.11039757 
  186000   -1790519.8    15072.798   -3114.5055    77.232592    89.181209    81.486324    2001.0337  0.046865787  0.048024106  0.058971211    0.1538611  0.033726439  0.034169691   0.04335173   0.11124786 
  187000   -1790452.9    14995.791   -2972.1987    77.232592    89.181209    81.486324    1990.8105   0.04693774  0.047683904  0.059118902   0.15374055  0.033727409  0.033086714  0.043610597   0.11042472 
  188000   -1790473.9    15069.867   -2244.7419    77.232592    89.181209    81.486324    2000.6446  0.047908904  0.049115344  0.059515658   0.15653991  0.034238013  0.034847545  0.043559667   0.11264523 
  189000   -1790417.8    15051.616   -1819.5172    77.232592    89.181209    81.486324    1998.2216  0.047355769  0.047367456  0.058792213   0.15351544  0.034310606  0.032595556  0.042833505   0.10973967 
  190000   -1790497.2    15046.786   -2943.8629    77.232592    89.181209    81.486324    1997.5804  0.045766002  0.048711469  0.059968524     0.154446  0.033038537   0.03446796  0.043847773   0.11135427 
  191000   -1790443.2    15085.663   -2823.6956    77.232592    89.181209    81.486324    2002.7416  0.047648575  0.046915198  0.057921463   0.15248524  0.034756066  0.032428263  0.042123331   0.10930766 
  192000   -1790469.3    15068.169   -3059.7667    77.232592    89.181209    81.486324    2000.4192  0.046971043   0.04836476  0.059980904   0.15531671  0.033139443   0.03349485  0.044748183   0.11138248 
  193000   -1790485.3    15015.153   -3582.0626    77.232592    89.181209    81.486324    1993.3809  0.046386413   0.04877098  0.060116271   0.15527366  0.033386393  0.033990088  0.043394269   0.11077075 
  194000   -1790506.4    15104.844   -2395.0538    77.232592    89.181209    81.486324     2005.288  0.047611722  0.048392755  0.058878528   0.15488301   0.03452978  0.032687697  0.042794505   0.11001198 
  195000   -1790499.6    15019.406     -2683.86    77.232592    89.181209    81.486324    1993.9455  0.046486298  0.049304573  0.059339746   0.15513062   0.03338492  0.034521466  0.043451825   0.11135821 
  196000   -1790464.5    15097.663   -2900.6885    77.232592    89.181209    81.486324    2004.3348  0.047129923  0.048178415  0.058944168   0.15425251  0.033819505  0.033168578  0.043537063   0.11052515 
  197000   -1790483.3    15044.905   -2489.2675    77.232592    89.181209    81.486324    1997.3308  0.048532187  0.049908941   0.05920192   0.15764305  0.034353296  0.034674999  0.043577161   0.11260546 
  198000   -1790511.1    15088.329   -2794.3867    77.232592    89.181209    81.486324    2003.0957  0.048401474  0.047665475  0.059528002   0.15559495  0.034063125  0.032978492  0.043692304   0.11073392 
  199000   -1790463.1    15152.012   -2112.2259    77.232592    89.181209    81.486324      2011.55  0.047381227  0.050229329  0.060371873   0.15798243  0.033252915   0.03512248  0.044044354   0.11241975 
  200000   -1790492.5    15010.628   -3246.2098    77.232592    89.181209    81.486324    1992.7802  0.047070972  0.048290337  0.061181605   0.15654291  0.033694554  0.033238545  0.044037626   0.11097073 
  201000   -1790453.2    15082.152   -2541.9657    77.232592    89.181209    81.486324    2002.2756  0.047649929  0.049852841  0.061344654   0.15884742  0.033417258  0.034723758  0.044627897   0.11276891 
  202000   -1790430.3    15078.369   -1994.5752    77.232592    89.181209    81.486324    2001.7733  0.047418508  0.047844903  0.059579661   0.15484307  0.034047628  0.032648186  0.043337923   0.11003374 
  203000   -1790441.4    15034.262   -1943.3608    77.232592    89.181209    81.486324    1995.9178  0.050924632  0.048142829  0.060988752   0.16005621  0.034978658  0.033040226  0.044092797   0.11211168 
  204000   -1790473.3    15001.146   -3053.6477    77.232592    89.181209    81.486324    1991.5214  0.047485954   0.04876461   0.06011353   0.15636409  0.032970011  0.033778515  0.043087308   0.10983583 
  205000     -1790473    15065.348   -2523.0103    77.232592    89.181209    81.486324    2000.0447  0.048613631  0.046825795  0.060499036   0.15593846  0.034181039   0.03176591  0.043404749    0.1093517 
  206000   -1790457.7     15081.81   -2017.8208    77.232592    89.181209    81.486324    2002.2302  0.050021898  0.049510314  0.060217765   0.15974998  0.035670252  0.034407008  0.043519484   0.11359674 
  207000   -1790538.9    15086.388   -2948.6343    77.232592    89.181209    81.486324     2002.838  0.047842689  0.048038525  0.059720093   0.15560131  0.033965682   0.03281035  0.044190141   0.11096617 
  208000   -1790480.8    15059.724   -2171.2856    77.232592    89.181209    81.486324    1999.2981  0.046870633  0.049763487  0.059773433   0.15640755  0.033007727  0.034039608  0.043325898   0.11037323 
  209000   -1790411.8    15112.821   -2202.9348    77.232592    89.181209    81.486324    2006.3471  0.048166976  0.047951331  0.060368829   0.15648714  0.034906279  0.033423308   0.04390403   0.11223362 
  210000   -1790407.6    14991.396   -2080.1075    77.232592    89.181209    81.486324     1990.227  0.048003416  0.047541028  0.059886545   0.15543099  0.033556881  0.032433243  0.043864538   0.10985466 
  211000   -1790405.1    15023.119   -2165.9447    77.232592    89.181209    81.486324    1994.4384  0.047178863  0.050821473   0.05941261   0.15741295   0.03377851  0.035346856   0.04341869   0.11254406 
  212000   -1790416.3    15073.092   -2049.7912    77.232592    89.181209    81.486324    2001.0728  0.047767303  0.047778489  0.060814761   0.15636055  0.033904343  0.032519852  0.044915787   0.11133998 
  213000   -1790450.4    15116.729   -1876.8724    77.232592    89.181209    81.486324    2006.8659   0.04707451  0.049688494  0.059768196    0.1565312  0.032622613  0.034893483  0.043426272   0.11094237 
  214000   -1790477.7    15037.572    -2279.808    77.232592    89.181209    81.486324    1996.3572  0.047310926  0.048557447  0.061503623     0.157372  0.033188814   0.03334191  0.045297897   0.11182862 
  215000     -1790415    15057.656   -2190.3602    77.232592    89.181209    81.486324    1999.0235    0.0482134  0.048100734  0.059658628   0.15597276  0.033957039  0.033136471  0.043367763   0.11046127 
  216000   -1790536.1    15040.352   -2880.4586    77.232592    89.181209    81.486324    1996.7262  0.047849601  0.047908646  0.060899918   0.15665817  0.033938622  0.033592924  0.044497764   0.11202931 
  217000   -1790455.1     14986.81   -2413.0571    77.232592    89.181209    81.486324    1989.6181   0.04866715  0.047719023  0.059804021   0.15619019  0.034195365  0.033970156  0.044102308   0.11226783 
  218000   -1790496.6     15139.67   -1806.8843    77.232592    89.181209    81.486324    2009.9115  0.048309558    0.0488808  0.059550526   0.15674088  0.033576839  0.034345833  0.043789773   0.11171245 
  219000   -1790361.4    15041.632   -1586.3073    77.232592    89.181209    81.486324    1996.8963  0.048392335  0.047539868  0.061317691   0.15724989  0.034139947  0.032816957  0.044750996    0.1117079 
  220000   -1790381.9    15106.388   -1799.3483    77.232592    89.181209    81.486324    2005.4931  0.049621652  0.050900971  0.060118944   0.16064157  0.034611443  0.036325532  0.043592453   0.11452943 
  221000   -1790431.1    15074.842   -2071.6036    77.232592    89.181209    81.486324     2001.305  0.049768455  0.047811847  0.060588346   0.15816865  0.035461209  0.032542781  0.044047195   0.11205119 
  222000   -1790457.5    15053.182   -2356.5356    77.232592    89.181209    81.486324    1998.4296  0.048587945   0.04854548  0.060771333   0.15790476  0.034323171  0.034439617  0.042380269   0.11114306 
  223000   -1790490.9    15100.945     -2251.09    77.232592    89.181209    81.486324    2004.7705  0.049187342  0.049279601  0.061302339   0.15976928  0.034798326  0.034458683  0.045150944   0.11440795 
  224000   -1790517.8    15023.429   -3182.1324    77.232592    89.181209    81.486324    1994.4796  0.050284394  0.049652974  0.060645044   0.16058241  0.035414415  0.033982136  0.044073845    0.1134704 
  225000     -1790583    15105.577   -2798.0563    77.232592    89.181209    81.486324    2005.3854  0.048955366  0.050326501  0.060710851   0.15999272  0.034391276   0.03484325   0.04534215   0.11457668 
  226000     -1790471    15059.718   -2211.5875    77.232592    89.181209    81.486324    1999.2973   0.04972908  0.049762724  0.061574189   0.16106599  0.035029577  0.034242387  0.045407319   0.11467928 
  227000   -1790507.2    15064.086   -2241.5218    77.232592    89.181209    81.486324    1999.8772  0.049652898  0.050150261  0.060046022   0.15984918  0.035031673  0.035076765  0.043435548   0.11354399 
  228000   -1790431.9     15041.74   -2473.1271    77.232592    89.181209    81.486324    1996.9106  0.050614149  0.050550016  0.061406881   0.16257105   0.03539529  0.034919704  0.044208826   0.11452382 
  229000   -1790508.8    15122.423   -2974.1132    77.232592    89.181209    81.486324    2007.6219   0.05020195  0.049916747  0.061910245   0.16202894  0.034651677  0.034228492  0.044705926   0.11358609 
  230000   -1790491.3    15073.649   -2644.1278    77.232592    89.181209    81.486324    2001.1467   0.04931808  0.050534219  0.060602255   0.16045455  0.033945407  0.034243236  0.044015993   0.11220464 
  231000   -1790516.3    15049.675   -3184.1914    77.232592    89.181209    81.486324    1997.9639  0.049933207  0.049229252  0.061783938    0.1609464  0.034507706  0.033381004  0.044767433   0.11265614 
  232000     -1790464    15167.234   -2248.6406    77.232592    89.181209    81.486324    2013.5709  0.050641746  0.049962946  0.060575682   0.16118037  0.034848081  0.034493027  0.043601286   0.11294239 
  233000   -1790520.2    14995.349   -2866.7562    77.232592    89.181209    81.486324    1990.7518  0.049010725  0.051177242  0.060473622   0.16066159  0.034082643  0.035598977  0.043681707   0.11336333 
  234000   -1790446.2    15046.462   -2426.3324    77.232592    89.181209    81.486324    1997.5375  0.048656121  0.050451069  0.060888509    0.1599957   0.03499705   0.03432643  0.045211466   0.11453495 
  235000   -1790460.1    14965.547   -2509.2657    77.232592    89.181209    81.486324    1986.7954  0.049192421  0.050770575  0.060365531   0.16032853  0.034876065  0.035466492  0.043482515   0.11382507 
  236000     -1790431     15030.89   -2415.5922    77.232592    89.181209    81.486324    1995.4701  0.050127107  0.050598327  0.062222602   0.16294804  0.036297674  0.035445775  0.045119342   0.11686279 
  237000   -1790451.3     15160.75   -1512.3375    77.232592    89.181209    81.486324    2012.7101  0.049021403   0.05099722  0.061802937   0.16182156  0.035067314  0.036408954  0.045257563   0.11673383 
  238000   -1790465.4     15068.83   -2679.4911    77.232592    89.181209    81.486324    2000.5069  0.049696741  0.049514059  0.060833622   0.16004442  0.035184913    0.0345989  0.044450089    0.1142339 
  239000   -1790513.9     15078.11   -2710.4041    77.232592    89.181209    81.486324     2001.739  0.049459528   0.05115416  0.061551846   0.16216553  0.034668957  0.036671006  0.044766607   0.11610657 
  240000   -1790448.2    15085.044   -3280.3512    77.232592    89.181209    81.486324    2002.6595  0.049796843  0.049553522  0.059378037    0.1587284  0.035611132  0.034820748  0.044182841   0.11461472 
  241000   -1790480.2     15123.51   -3235.6784    77.232592    89.181209    81.486324    2007.7662  0.049855894  0.049403857  0.060548234   0.15980798  0.035927664    0.0343939   0.04439434    0.1147159 
  242000   -1790389.1    15064.335   -2190.8922    77.232592    89.181209    81.486324    1999.9102   0.04918911  0.050812672  0.061406809   0.16140859  0.034662398  0.035306178  0.044994921    0.1149635 
  243000   -1790568.5    15070.289   -2953.8789    77.232592    89.181209    81.486324    2000.7006  0.048986429  0.050012377  0.060255974   0.15925478  0.035187762   0.03531194   0.04497045   0.11547015 
  244000     -1790490    15047.553   -2549.9849    77.232592    89.181209    81.486324    1997.6823   0.04996495  0.049101965  0.060039293   0.15910621  0.036258252  0.034703527  0.045230716    0.1161925 
  245000   -1790451.6    15026.727   -2119.1628    77.232592    89.181209    81.486324    1994.9175  0.049845426  0.048958665  0.061721541   0.16052563  0.035389951  0.034949122  0.045981893   0.11632097 
  246000   -1790418.1    14938.723   -2509.1059    77.232592    89.181209    81.486324    1983.2342  0.049712801  0.051159793  0.060402135   0.16127473  0.035777615   0.03658491  0.044200601   0.11656313 
  247000   -1790563.5    15077.379   -3288.7018    77.232592    89.181209    81.486324    2001.6419  0.049879838  0.048286903   0.06077179   0.15893853  0.034863865  0.035002742  0.045579079   0.11544569 
  248000   -1790451.9    14989.172   -1942.2151    77.232592    89.181209    81.486324    1989.9317  0.050574142  0.049952137  0.061395693   0.16192197  0.036454298  0.035867105  0.045214805   0.11753621 
  249000   -1790433.6    15059.437   -1840.3669    77.232592    89.181209    81.486324      1999.26  0.050405451  0.050393895  0.060137441   0.16093679  0.035932335  0.035892383  0.044421241   0.11624596 
  250000   -1790511.5    15103.383   -3176.6408    77.232592    89.181209    81.486324    2005.0941  0.050997263  0.049820583  0.061346794   0.16216464  0.036141519  0.035015521  0.044365814   0.11552285 
  251000   -1790534.4    15018.438   -3145.8514    77.232592    89.181209    81.486324     1993.817  0.049202695  0.049439868  0.060722904   0.15936547   0.03458459  0.035693091  0.044039742   0.11431742 
  252000   -1790468.5    15105.122   -2388.9918    77.232592    89.181209    81.486324     2005.325  0.049389346   0.04893408  0.061162454   0.15948588  0.035284025    0.0354435  0.045448635   0.11617616 
  253000   -1790384.6    15078.719   -2466.1295    77.232592    89.181209    81.486324    2001.8198  0.049591418  0.049954843  0.060449395   0.15999566  0.035090952  0.036006951  0.044108317   0.11520622 
  254000   -1790467.6    15083.732   -2377.8564    77.232592    89.181209    81.486324    2002.4853  0.050513409  0.049623091  0.061593719   0.16173022  0.035403592   0.03531626  0.045287144     0.116007 
  255000   -1790428.2    15056.026   -2084.6562    77.232592    89.181209    81.486324    1998.8072  0.050684771  0.051224918  0.061383226   0.16329292   0.03560734  0.036404451  0.044943438   0.11695523 
  256000   -1790511.3    15061.191   -2999.0702    77.232592    89.181209    81.486324    1999.4928  0.050047285  0.051113103  0.061023134   0.16218352  0.035263102  0.036290251  0.044711314   0.11626467 
  257000   -1790559.1    15177.843   -3510.2613    77.232592    89.181209    81.486324    2014.9793  0.051745939  0.051740458  0.062735809   0.16622221   0.03687899  0.036091052  0.045207963     0.118178 
  258000   -1790447.8    15127.609   -2130.3911    77.232592    89.181209    81.486324    2008.3103  0.050571139  0.051976072  0.060754775   0.16330199  0.034489485  0.036371402  0.044946896   0.11580778 
  259000   -1790518.6    15055.893   -2836.3101    77.232592    89.181209    81.486324    1998.7895  0.049987755  0.051801169  0.062113792   0.16390272  0.034598437  0.036075566  0.045502999     0.116177 
  260000   -1790459.8    15013.503   -2433.2009    77.232592    89.181209    81.486324    1993.1619  0.050842511  0.050627046  0.061981535   0.16345109  0.036005966   0.03513682    0.0452057   0.11634849 
  261000   -1790527.8    15134.774   -2388.9736    77.232592    89.181209    81.486324    2009.2616  0.050490887  0.051492979  0.060112626   0.16209649  0.035821165  0.035353396  0.043489837    0.1146644 
  262000   -1790466.2    15108.226   -2797.3512    77.232592    89.181209    81.486324    2005.7371  0.051814692  0.051938686  0.061359985   0.16511336  0.036461043  0.035715981  0.045301635   0.11747866 
  263000   -1790497.8     15160.74   -2547.4552    77.232592    89.181209    81.486324    2012.7087  0.050082065  0.051613487  0.060992613   0.16268816   0.03528139  0.036043953  0.044517064   0.11584241 
  264000   -1790566.4    15016.991   -3119.5837    77.232592    89.181209    81.486324    1993.6249  0.049751062  0.049762703  0.060793896   0.16030766  0.035478397  0.034781637  0.044766221   0.11502625 
  265000   -1790424.3    15095.305   -2326.5242    77.232592    89.181209    81.486324    2004.0217  0.049687362  0.051143844  0.061083741   0.16191495  0.035301618  0.037091566  0.045439342   0.11783253 
  266000   -1790499.9    15112.329   -2800.5819    77.232592    89.181209    81.486324    2006.2818  0.049520835  0.050213639  0.060584274   0.16031875  0.035310371  0.035937201  0.045372168   0.11661974 
  267000   -1790570.2    15054.802   -2848.6276    77.232592    89.181209    81.486324    1998.6446  0.050220853  0.051253293  0.063038905   0.16451305  0.035594883  0.036750039  0.047548915   0.11989384 
  268000   -1790450.8    15051.975   -2446.5367    77.232592    89.181209    81.486324    1998.2693  0.050286516   0.05085431  0.060763973    0.1619048  0.035106104  0.036374789  0.044413726   0.11589462 
  269000   -1790471.8     15166.61   -1801.9642    77.232592    89.181209    81.486324    2013.4881  0.050754782  0.050874728  0.061800929   0.16343044  0.035521764  0.036381821   0.04583712    0.1177407 
  270000   -1790397.2    15073.553   -2463.1314    77.232592    89.181209    81.486324    2001.1339  0.050955727   0.05052989  0.061907187    0.1633928   0.03481891  0.036857037  0.046000652    0.1176766 
  271000   -1790442.8    15166.232    -1981.147    77.232592    89.181209    81.486324    2013.4378  0.051547178   0.05012465  0.060748784   0.16242061  0.035623458  0.036189108  0.044374105   0.11618667 
  272000   -1790624.9    15012.909   -3619.3589    77.232592    89.181209    81.486324     1993.083   0.05152334  0.050245826  0.063714192   0.16548336  0.035762778   0.03705511  0.047305352   0.12012324 
  273000   -1790507.7    15083.751   -2653.9569    77.232592    89.181209    81.486324    2002.4878  0.051004143  0.050968678  0.059984198   0.16195702  0.035276465  0.036676034  0.043526709   0.11547921 
  274000   -1790532.8    14995.951   -2336.8195    77.232592    89.181209    81.486324    1990.8317  0.050860502  0.051373242  0.062714799   0.16494854  0.034696107  0.036713038  0.045417523   0.11682667 
  275000   -1790452.9    15008.735   -2858.2034    77.232592    89.181209    81.486324    1992.5289  0.051198842  0.051717154  0.061920747   0.16483674  0.035799858  0.036502414  0.044960301   0.11726257 
  276000   -1790397.9    15038.435   -2286.9881    77.232592    89.181209    81.486324    1996.4717  0.051233791  0.051516406  0.062323476   0.16507367  0.035492696  0.037157673  0.045371633     0.118022 
  277000   -1790421.1    15128.828   -2109.4615    77.232592    89.181209    81.486324    2008.4721  0.052461972  0.050199653  0.061160626   0.16382225  0.036856552  0.036714504  0.045594158   0.11916521 
  278000   -1790490.6    15043.509   -2627.2629    77.232592    89.181209    81.486324    1997.1454  0.052251609  0.051527512  0.062119768   0.16589889  0.035469394   0.03697946  0.045043475   0.11749233 
  279000   -1790557.8    15083.349   -2745.3186    77.232592    89.181209    81.486324    2002.4344  0.051483819   0.05103101  0.061542713   0.16405754  0.036515491  0.036649806  0.045405697   0.11857099 
  280000   -1790416.1    15018.151   -2040.3647    77.232592    89.181209    81.486324    1993.7788  0.051156272  0.051237551  0.061308699   0.16370252  0.036918682  0.037199178  0.046164325   0.12028219 
  281000   -1790401.5    15065.753   -2651.8936    77.232592    89.181209    81.486324    2000.0984  0.052277017  0.052546458  0.062436911   0.16726039  0.036628638  0.038056763  0.046262673   0.12094807 
  282000     -1790570    15015.988   -3397.6896    77.232592    89.181209    81.486324    1993.4917   0.05202598  0.050526025  0.061755507   0.16430751  0.037627253  0.037166261  0.045306693   0.12010021 
  283000     -1790454    14991.442   -2710.6736    77.232592    89.181209    81.486324    1990.2331  0.051684255  0.052486724  0.062964789   0.16713577   0.03567539  0.037674625  0.046972987     0.120323 
  284000   -1790420.6    15072.369    -2387.162    77.232592    89.181209    81.486324    2000.9768  0.053038791  0.051131943   0.06249722   0.16666795  0.036932134  0.037615914  0.045971226   0.12051927 
  285000     -1790488    15052.037   -2401.6314    77.232592    89.181209    81.486324    1998.2776  0.052004704  0.051203925  0.062097256   0.16530589  0.036698936   0.03727152  0.046112808   0.12008326 
  286000   -1790521.5    15071.125   -2443.7956    77.232592    89.181209    81.486324    2000.8117  0.052289882  0.051919388  0.061160259   0.16536953    0.0365039  0.037867524  0.045498153   0.11986958 
  287000   -1790422.4    15060.198   -2107.5324    77.232592    89.181209    81.486324     1999.361  0.051399838  0.051208217  0.063113306   0.16572136  0.036195382  0.037206612  0.046421188   0.11982318 
  288000   -1790522.3    15117.666   -2865.3254    77.232592    89.181209    81.486324    2006.9903  0.051628535  0.050549035     0.061647   0.16382457  0.035943015  0.036630019  0.045239309   0.11781234 
  289000   -1790479.2    14935.561   -2889.7021    77.232592    89.181209    81.486324    1982.8144  0.052595732   0.04995115  0.062138647   0.16468553   0.03666967  0.037015139  0.046074174   0.11975898 
  290000   -1790451.9    15020.584   -2751.6328    77.232592    89.181209    81.486324    1994.1019  0.051802623  0.051694178  0.063021822   0.16651862  0.036748254   0.03794406   0.04711425   0.12180656 
  291000   -1790589.7    15047.761   -3020.2887    77.232592    89.181209    81.486324    1997.7099  0.052229172  0.050918946   0.06128453   0.16443265  0.036370049  0.037875864  0.045028324   0.11927424 
  292000   -1790445.9     15057.49   -2322.4742    77.232592    89.181209    81.486324    1999.0015  0.051825092  0.050953802    0.0639915   0.16677039  0.036214062  0.037311031  0.048156346   0.12168144 
  293000   -1790439.5    15059.466   -1842.5894    77.232592    89.181209    81.486324    1999.2639  0.052561971  0.051269428  0.062174805    0.1660062  0.036832422  0.038780886  0.045422134   0.12103544 
  294000     -1790445    15139.953    -2085.544    77.232592    89.181209    81.486324    2009.9491  0.052807639  0.051232706   0.06265974   0.16670009  0.037038748  0.037766716  0.046120088   0.12092555 
  295000     -1790454    15011.126   -2645.4649    77.232592    89.181209    81.486324    1992.8463  0.051794625  0.051921843  0.062854401   0.16657087  0.036239904   0.03839051  0.046756524   0.12138694 
  296000   -1790358.5    14991.579   -1825.6918    77.232592    89.181209    81.486324    1990.2512  0.052319642  0.052831569  0.062203686    0.1673549  0.036970013  0.039209473   0.04596552   0.12214501 
  297000   -1790509.5    15084.011   -2478.9572    77.232592    89.181209    81.486324    2002.5223  0.053088281  0.050236891  0.062908746   0.16623392  0.037511007  0.037507165  0.046715232    0.1217334 
  298000     -1790450    15036.226   -2497.1889    77.232592    89.181209    81.486324    1996.1785   0.05321495  0.052883941  0.062831587   0.16893048  0.037779929  0.040135361  0.045996768   0.12391206 
  299000   -1790404.6    15112.669   -2150.7045    77.232592    89.181209    81.486324     2006.327  0.052243179  0.051418475  0.063981395   0.16764305  0.036867904  0.037751027  0.046879399   0.12149833 
  300000   -1790435.9    15065.857   -2732.2035    77.232592    89.181209    81.486324    2000.1123  0.051948053  0.051337499  0.062424933   0.16571049  0.037492108  0.037301581  0.046655208    0.1214489 
  301000   -1790457.8    15067.501   -2069.9468    77.232592    89.181209    81.486324    2000.3305  0.052233446  0.050197552  0.062990843   0.16542184  0.036620602  0.036719411  0.047089638   0.12042965 
  302000   -1790493.9    15074.719    -3017.299    77.232592    89.181209    81.486324    2001.2887  0.053148097  0.053067609  0.063518974   0.16973468  0.037848532   0.03878091  0.046867871   0.12349731 
  303000   -1790466.6    14991.702   -3013.8919    77.232592    89.181209    81.486324    1990.2676   0.05186243  0.053246411  0.063942741   0.16905158  0.036821506  0.038866133  0.047223606   0.12291125 
  304000   -1790333.1    15038.938   -2017.0199    77.232592    89.181209    81.486324    1996.5385  0.052416957  0.051751776  0.063752041   0.16792077  0.037548143  0.038533983  0.046548768   0.12263089 
  305000   -1790566.1    15022.062   -3302.8078    77.232592    89.181209    81.486324    1994.2982  0.052915812  0.053205323  0.064555183   0.17067632  0.037739791  0.039112058  0.047785374   0.12463722 
  306000   -1790482.7    15086.937   -2850.3612    77.232592    89.181209    81.486324    2002.9108  0.051890733  0.051229956  0.062518715    0.1656394  0.037204348  0.038145409  0.047006258   0.12235602 
  307000   -1790490.6    15074.429   -2667.2037    77.232592    89.181209    81.486324    2001.2502  0.052622956  0.052020235  0.063470931   0.16811412  0.037836165  0.038366971  0.047761029   0.12396417 
  308000   -1790480.4     15038.08   -2856.6491    77.232592    89.181209    81.486324    1996.4247  0.053619806   0.05168663  0.062199635   0.16750607  0.037996926  0.037085096  0.046656865   0.12173889 
  309000   -1790451.3    15163.365   -1907.0074    77.232592    89.181209    81.486324    2013.0572  0.053065504  0.051934338   0.06327533   0.16827517  0.036999621  0.038257397  0.046398004   0.12165502 
  310000   -1790428.8    15025.202   -2267.6959    77.232592    89.181209    81.486324     1994.715  0.053119299  0.050807703  0.062471367   0.16639837  0.037348751   0.03770488  0.046806791   0.12186042 
  311000   -1790520.7    15017.883    -2938.391    77.232592    89.181209    81.486324    1993.7434  0.053909129  0.051048198  0.061284041   0.16624137   0.03861548  0.037532644  0.045510381   0.12165851 
  312000   -1790511.5    15031.437   -2690.1302    77.232592    89.181209    81.486324    1995.5428  0.052499415  0.053488147  0.062887023   0.16887458  0.036652467  0.039444194  0.046743621   0.12284028 
  313000   -1790430.4    14972.052   -2955.3771    77.232592    89.181209    81.486324     1987.659  0.053523825  0.049770499  0.062337994   0.16563232  0.038243138  0.036551126   0.04529043   0.12008469 
  314000   -1790512.3    15032.835   -2677.2569    77.232592    89.181209    81.486324    1995.7284  0.051594468  0.053155357  0.064841339   0.16959116   0.03647091  0.039129806  0.047724123   0.12332484 
  315000   -1790453.9    15027.926   -2391.2113    77.232592    89.181209    81.486324    1995.0766  0.052748044   0.05091235  0.063079845   0.16674024  0.037850574  0.037922212  0.047240551   0.12301334 
  316000   -1790480.4    15099.822   -2935.4653    77.232592    89.181209    81.486324    2004.6214    0.0524296   0.05247648  0.063279433   0.16818551  0.037257065  0.037693974  0.045882774   0.12083381 
  317000   -1790466.3    15066.802   -2363.5811    77.232592    89.181209    81.486324    2000.2377  0.052638124  0.051460913  0.062094775   0.16619381  0.037505497  0.037786054  0.046080464   0.12137201 
  318000     -1790503     15091.71   -3232.8973    77.232592    89.181209    81.486324    2003.5444  0.051753235  0.051633932  0.062360989   0.16574816  0.036474775  0.037800026  0.045254182   0.11952898 
  319000   -1790441.4    15061.635   -2119.8216    77.232592    89.181209    81.486324    1999.5517  0.052413558  0.052749274  0.062946821   0.16810965  0.037624079   0.03826165  0.046636889   0.12252262 
  320000   -1790378.9    15042.974   -1846.7392    77.232592    89.181209    81.486324    1997.0744  0.052424657  0.051929055  0.062416281   0.16676999   0.03730985  0.036440699  0.045228646    0.1189792 
  321000   -1790593.1    15130.021   -3267.8849    77.232592    89.181209    81.486324    2008.6306   0.05198595  0.053704402  0.062916544    0.1686069    0.0367642  0.039509651  0.046016812   0.12229066 
  322000     -1790500    14980.489   -2923.8731    77.232592    89.181209    81.486324    1988.7789  0.052676677  0.052162828   0.06234279    0.1671823  0.036988045  0.037603775  0.046645667   0.12123749 
  323000   -1790508.6    15147.058   -2602.0438    77.232592    89.181209    81.486324    2010.8923  0.052442605  0.053115107  0.062843891    0.1684016  0.037585599  0.038226883  0.046675262   0.12248774 
  324000   -1790537.8    15012.679   -2708.3632    77.232592    89.181209    81.486324    1993.0524  0.050918845  0.053660035  0.063651981   0.16823086  0.036742396  0.039139225  0.047397412   0.12327903 
  325000   -1790416.7    15065.339   -2711.0345    77.232592    89.181209    81.486324    2000.0435  0.051985201  0.053474455  0.061728974   0.16718863  0.037125365  0.038521666  0.046010151   0.12165718 
  326000     -1790550    15127.189   -2643.3096    77.232592    89.181209    81.486324    2008.2546  0.051958216  0.052290547  0.063695749   0.16794451  0.038010195  0.038110487  0.048054731   0.12417541 
  327000   -1790435.6    15021.554   -2255.2133    77.232592    89.181209    81.486324    1994.2307  0.051982798  0.054088305  0.063261895     0.169333  0.037278488   0.03946533  0.046739873   0.12348369 
  328000   -1790467.1    15138.593   -2300.4411    77.232592    89.181209    81.486324    2009.7685  0.052731979  0.053815716  0.062145944   0.16869364  0.037828762  0.038924772  0.046246199   0.12299973 
  329000   -1790461.8    14989.137   -2900.5641    77.232592    89.181209    81.486324    1989.9271  0.052956618  0.052822419   0.06308182   0.16886086  0.038747328  0.038614735  0.048026781   0.12538884 
  330000   -1790421.8    14991.117   -2490.0059    77.232592    89.181209    81.486324    1990.1899    0.0516498  0.053051383  0.062371605   0.16707279  0.037637178   0.03888543    0.0462759   0.12279851 
  331000   -1790431.7    15182.653   -2026.1513    77.232592    89.181209    81.486324    2015.6179  0.051646682  0.054325238  0.064319407   0.17029133  0.036525257  0.038984068  0.047677422   0.12318675 
  332000   -1790479.9     14970.52   -2449.2559    77.232592    89.181209    81.486324    1987.4555  0.052349126  0.051904994  0.062843531   0.16709765  0.037834693  0.036883332  0.046319417   0.12103744 
  333000   -1790437.9    15134.051   -2748.2637    77.232592    89.181209    81.486324    2009.1656  0.052573867  0.052658842   0.06394208   0.16917479  0.037742358   0.03778026  0.047078873   0.12260149 
  334000   -1790468.8    15108.897   -2473.1078    77.232592    89.181209    81.486324    2005.8262  0.052356151  0.052449545  0.062332707    0.1671384   0.03718244  0.037945101  0.046657354    0.1217849 
  335000   -1790469.3    15019.698   -2182.1106    77.232592    89.181209    81.486324    1993.9843  0.052052443  0.051161738  0.062801538   0.16601572   0.03653787  0.037111509  0.047239694   0.12088907 
  336000   -1790564.2    15095.539   -3027.2278    77.232592    89.181209    81.486324    2004.0528  0.052866194  0.052176065  0.062808153   0.16785041  0.037348896  0.038005883  0.047203257   0.12255804 
  337000   -1790480.4    15116.228   -1708.5673    77.232592    89.181209    81.486324    2006.7995  0.053487462  0.053725487  0.064278165   0.17149111  0.037969143   0.03908672  0.048284887   0.12534075 
  338000     -1790492    15071.425   -2757.5311    77.232592    89.181209    81.486324    2000.8515  0.052293775  0.053508524  0.062724286   0.16852658  0.037445797  0.039784278  0.046341537   0.12357161 
  339000   -1790429.3    15090.947   -2667.3997    77.232592    89.181209    81.486324    2003.4432  0.053660792  0.051444348  0.062408098   0.16751324  0.038485672  0.037438091  0.047649805   0.12357357 
  340000   -1790450.2    15099.927   -2225.4601    77.232592    89.181209    81.486324    2004.6353  0.053403114  0.054741936  0.063847195   0.17199224  0.037852132   0.03954743  0.047601271   0.12500083 
  341000   -1790377.1    15182.234   -1081.8753    77.232592    89.181209    81.486324    2015.5622  0.052487728  0.053551263  0.062459384   0.16849837  0.036898216  0.038849728  0.047022289   0.12277023 
  342000   -1790530.9    15149.869   -2400.1039    77.232592    89.181209    81.486324    2011.2655   0.05324377  0.051774194  0.061373911   0.16639187  0.038635277  0.037668055  0.045838914   0.12214225 
  343000   -1790487.8    15053.569   -2378.0495    77.232592    89.181209    81.486324    1998.4809  0.052741393  0.052783131  0.064064386   0.16958891  0.037258197  0.038090244  0.048353873   0.12370231 
  344000   -1790523.4    15071.133   -2785.6942    77.232592    89.181209    81.486324    2000.8127  0.052798095  0.053156433  0.063994974    0.1699495  0.037799206  0.038566946  0.047981882   0.12434803 
  345000   -1790455.5    15167.873   -1959.7575    77.232592    89.181209    81.486324    2013.6556  0.051808975  0.053858297  0.063833044   0.16950032  0.038043354  0.038979175  0.048129819   0.12515235 
  346000   -1790445.4    15080.781   -2023.2519    77.232592    89.181209    81.486324    2002.0935  0.052488951  0.052511516  0.063517497   0.16851796  0.037497173  0.037823582  0.047409949    0.1227307 
  347000   -1790493.3    14947.031   -1867.6905    77.232592    89.181209    81.486324    1984.3372  0.053154479  0.052786778  0.064254525   0.17019578  0.037289939  0.038310238   0.04663898   0.12223916 
  348000   -1790464.4    14940.457   -2836.8318    77.232592    89.181209    81.486324    1983.4644  0.052065301  0.053378349  0.064445767   0.16988942  0.036700484  0.037942648  0.048319406   0.12296254 
  349000   -1790419.8    15002.087   -2574.6974    77.232592    89.181209    81.486324    1991.6462  0.052153311  0.053336469  0.062920361   0.16841014   0.03684639  0.037477543  0.047226519   0.12155045 
  350000   -1790431.6    15057.514    -2273.822    77.232592    89.181209    81.486324    1999.0046  0.053097783  0.054461685   0.06503165   0.17259112  0.036888335  0.039209047  0.048698004   0.12479539 
  351000   -1790429.3    14979.018   -2519.1137    77.232592    89.181209    81.486324    1988.5837  0.053599121     0.053746  0.064048946   0.17139407  0.037535843  0.038443117  0.047687701   0.12366666 
  352000   -1790483.9    15092.399   -2342.6237    77.232592    89.181209    81.486324     2003.636  0.053647134  0.054600315  0.064999355    0.1732468  0.037757057  0.038512862  0.047997984    0.1242679 
  353000   -1790478.2    15029.913   -2420.7717    77.232592    89.181209    81.486324    1995.3404  0.053035228  0.053463213  0.064551292   0.17104973  0.037526474  0.037762407  0.046878386   0.12216727 
  354000   -1790434.4    15000.923   -2131.8931    77.232592    89.181209    81.486324    1991.4917  0.053873008  0.054840141  0.064275405   0.17298855  0.037984784   0.03902785  0.047478224   0.12449086 
  355000   -1790480.6    15144.214   -2828.8189    77.232592    89.181209    81.486324    2010.5148  0.053044776  0.054293251  0.064745895   0.17208392  0.037300941  0.037673428   0.04732979   0.12230416 
  356000   -1790474.1    15083.865   -2231.0772    77.232592    89.181209    81.486324     2002.503  0.053003752  0.054207804  0.065273432   0.17248499  0.037062312  0.037847087  0.048658588   0.12356799 
  357000   -1790464.2    14985.433   -2568.2889    77.232592    89.181209    81.486324    1989.4354  0.052866723   0.05440912  0.065404387   0.17268023  0.037228024  0.038187262  0.047601287   0.12301657 
  358000   -1790479.3     15065.19   -2875.1748    77.232592    89.181209    81.486324    2000.0237  0.052876098   0.05389251  0.065301959   0.17207057  0.037984236   0.03799516  0.047176976   0.12315637 
  359000   -1790548.2    15049.244   -3006.0172    77.232592    89.181209    81.486324    1997.9067  0.053690804  0.055375495  0.065240985   0.17430728  0.038458293  0.039057888  0.048581817     0.126098 
  360000   -1790449.3    15047.235    -2543.588    77.232592    89.181209    81.486324      1997.64  0.053482563  0.053179957  0.065409865   0.17207238  0.039146233   0.03719838  0.048514082   0.12485869 
  361000   -1790495.5    14979.325   -2113.3605    77.232592    89.181209    81.486324    1988.6244  0.052906234  0.054850228  0.065876452   0.17363291    0.0375231  0.038238305  0.049147383   0.12490879 
  362000   -1790540.7    15052.125   -2821.6236    77.232592    89.181209    81.486324    1998.2893  0.052524101  0.054203304  0.063921453   0.17064886  0.037777104  0.038067306  0.046839342   0.12268375 
  363000   -1790474.7    15013.498   -2539.8584    77.232592    89.181209    81.486324    1993.1612  0.054079404   0.05547136  0.065409528   0.17496029  0.037752933   0.03850941  0.048750196   0.12501254 
  364000   -1790526.4    15046.319   -2890.1623    77.232592    89.181209    81.486324    1997.5184  0.053428325  0.055292492  0.065526796   0.17424761   0.03800915  0.038756815  0.048224055   0.12499002 
  365000   -1790396.9    15166.214    -2367.929    77.232592    89.181209    81.486324    2013.4354  0.053385588  0.054903301    0.0657913   0.17408019  0.037971814  0.038840183  0.048384303    0.1251963 
  366000   -1790489.1    15025.698   -3270.7262    77.232592    89.181209    81.486324    1994.7809  0.052739994  0.055929454  0.065232938   0.17390239  0.038126027  0.039630351  0.048625259   0.12638164 
  367000   -1790518.8    15092.054   -2854.7814    77.232592    89.181209    81.486324    2003.5901  0.052982208  0.054854683  0.063170136   0.17100703  0.037041796  0.037928868  0.047133213   0.12210388 
  368000   -1790527.9     15088.56   -3399.2267    77.232592    89.181209    81.486324    2003.1263  0.053463984   0.05507359  0.066020097   0.17455767  0.037584954  0.038789744   0.04821985   0.12459455 
  369000   -1790433.7    15037.615   -2516.3177    77.232592    89.181209    81.486324     1996.363  0.054375001  0.055562714  0.064377748   0.17431546  0.039142057  0.039404959  0.047866333   0.12641335 
  370000   -1790445.1    15039.664   -2051.6305    77.232592    89.181209    81.486324     1996.635  0.054244854  0.054370668  0.065090488   0.17370601  0.038681064  0.037881941  0.048015481   0.12457849 
  371000   -1790428.4    15091.891   -2121.4742    77.232592    89.181209    81.486324    2003.5685  0.053435797  0.056104623  0.066222917   0.17576334  0.037836667   0.03923412   0.04971705   0.12678784 
  372000   -1790578.5    15013.236   -3229.9129    77.232592    89.181209    81.486324    1993.1264  0.052806546  0.054868388  0.064984582   0.17265952  0.036984698  0.038596394  0.047742575   0.12332367 
  373000   -1790515.5    14955.477   -3168.7235    77.232592    89.181209    81.486324    1985.4585  0.054229119  0.055814199   0.06457411   0.17461743  0.037926555  0.039168024  0.047739113   0.12483369 
  374000   -1790455.8     15022.34   -2850.9817    77.232592    89.181209    81.486324     1994.335  0.053848099  0.055317892  0.066238783   0.17540477  0.038322558  0.038409147  0.049551618   0.12628332 
  375000     -1790543    15168.816   -2652.1028    77.232592    89.181209    81.486324    2013.7809  0.054709618  0.056075549  0.064341036    0.1751262     0.038298  0.039804358  0.047536994   0.12563935 
  376000   -1790408.6    14972.601   -2427.3926    77.232592    89.181209    81.486324    1987.7318  0.053782979  0.053949983  0.064659601   0.17239256  0.037152571  0.037864332  0.048631665   0.12364857 
  377000   -1790485.8    14974.709   -2716.8374    77.232592    89.181209    81.486324    1988.0117  0.053294827  0.055262223  0.065111982   0.17366903  0.037833957  0.038331652  0.048614263   0.12477987 
  378000   -1790497.7    15058.778    -2582.421    77.232592    89.181209    81.486324    1999.1724   0.05480766  0.055531995  0.063750211   0.17408987   0.03831668  0.039483816  0.047583616   0.12538411 
  379000   -1790547.8    15069.573   -2762.7622    77.232592    89.181209    81.486324    2000.6056  0.053115022  0.055516568  0.065974306    0.1746059  0.037382691  0.038721075  0.049621731    0.1257255 
  380000   -1790526.8    14990.421     -2943.67    77.232592    89.181209    81.486324    1990.0975  0.053915163  0.055206796  0.065320081   0.17444204  0.038515846  0.038973437  0.048132387   0.12562167 
  381000   -1790411.9    15091.705    -2233.734    77.232592    89.181209    81.486324    2003.5438  0.053131013  0.055100553  0.066067447   0.17429901  0.037328038  0.038263188  0.049229983   0.12482121 
  382000   -1790486.9    15035.331   -2069.1775    77.232592    89.181209    81.486324    1996.0597  0.054474782  0.055718088  0.065177166   0.17537003  0.038580907  0.039027028  0.049570993   0.12717893 
  383000   -1790466.9    15135.279   -2199.0345    77.232592    89.181209    81.486324    2009.3286  0.054323639  0.055764692  0.066884095   0.17697243  0.038516199  0.038630701   0.04961113   0.12675803 
  384000     -1790544    15003.872   -3316.5958    77.232592    89.181209    81.486324    1991.8833  0.053831523  0.056579551  0.066379206   0.17679028  0.038919648   0.03925166  0.049784774   0.12795608 
  385000   -1790421.1    14981.875   -2741.8057    77.232592    89.181209    81.486324     1988.963  0.054821012  0.056333563  0.066685708   0.17784028  0.039820513  0.039218323  0.050628893   0.12966773 
  386000   -1790525.9    15040.008    -3214.614    77.232592    89.181209    81.486324    1996.6807  0.054444839  0.055711016  0.065611395   0.17576725  0.038304664  0.038211263  0.048507629   0.12502356 
  387000   -1790501.9    15055.516   -2942.9909    77.232592    89.181209    81.486324    1998.7394  0.055685534  0.055631284  0.065037826   0.17635464  0.039075235  0.038569978  0.047987453   0.12563266 
  388000   -1790508.5    15122.096   -2939.7281    77.232592    89.181209    81.486324    2007.5785  0.055938527  0.055945607  0.064618881   0.17650301    0.0394116  0.038780911  0.047743332   0.12593584 
  389000   -1790554.5    15119.409   -3129.5163    77.232592    89.181209    81.486324    2007.2217  0.054259601  0.055759113  0.067519534   0.17753825  0.038657637  0.038850829  0.049715275   0.12722374 
  390000   -1790538.8    15029.666   -2915.6455    77.232592    89.181209    81.486324    1995.3076   0.05458047  0.054077864  0.067299607   0.17595794  0.038606603  0.038001317  0.048796445   0.12540436 
  391000     -1790393    15029.967   -2837.7018    77.232592    89.181209    81.486324    1995.3476  0.055652833  0.056029124  0.065968073   0.17765003  0.039521878  0.039917854  0.049325861   0.12876559 
  392000   -1790466.8    15077.733   -2506.4071    77.232592    89.181209    81.486324     2001.689  0.055337687  0.055528615  0.067410911   0.17827721  0.039514262  0.039529709   0.05008262   0.12912659 
  393000   -1790437.5    15047.011   -2488.7318    77.232592    89.181209    81.486324    1997.6103  0.054902483  0.054230563  0.066650632   0.17578368  0.039226812  0.037962459  0.049849219   0.12703849 
  394000   -1790461.8    15117.431   -2614.0705    77.232592    89.181209    81.486324    2006.9591  0.055151527  0.056282979  0.066587456   0.17802196  0.039213821  0.039179122  0.049920486   0.12831343 
  395000   -1790529.1    15034.848   -3112.4402    77.232592    89.181209    81.486324    1995.9956  0.055645339  0.056917587  0.065837173    0.1784001  0.039421502  0.039013747  0.048794924   0.12723017 
  396000   -1790419.5    15027.018   -2278.9096    77.232592    89.181209    81.486324     1994.956  0.055171104  0.055985816  0.065935071   0.17709199  0.039425615  0.038510182  0.048880096   0.12681589 
  397000   -1790502.7     15034.48   -2444.4925    77.232592    89.181209    81.486324    1995.9467   0.05529662   0.05604107   0.06553842   0.17687611  0.038804745  0.039476284  0.048435988   0.12671702 
  398000   -1790478.2    15014.425   -2407.2132    77.232592    89.181209    81.486324    1993.2843  0.054986948  0.054534584  0.066165754   0.17568729  0.038838823   0.03840827  0.049072165   0.12631926 
  399000   -1790593.6    15122.705   -2705.0194    77.232592    89.181209    81.486324    2007.6593   0.05474183  0.056127811  0.066719196   0.17758884   0.03876919  0.039132107  0.049624809   0.12752611 
  400000   -1790494.8    15047.793   -2231.5474    77.232592    89.181209    81.486324    1997.7141  0.056221886   0.05489806  0.065505481   0.17662543  0.040711441  0.038124552  0.048536458   0.12737245 
  401000     -1790473    15109.595   -2798.0009    77.232592    89.181209    81.486324    2005.9188  0.055270573  0.056365285  0.066723621   0.17835948  0.038957413  0.039517512  0.049288256   0.12776318 
  402000   -1790430.3    15082.728   -2051.3967    77.232592    89.181209    81.486324     2002.352  0.054022536  0.056030121  0.066158076   0.17621073  0.037978283  0.039173073  0.049253273   0.12640463 
  403000   -1790510.4    15045.322   -2682.3576    77.232592    89.181209    81.486324    1997.3861  0.054832096  0.056256195  0.065131081   0.17621937  0.038589767  0.037935811   0.04831621   0.12484179 
  404000   -1790503.6    15035.413   -2548.8623    77.232592    89.181209    81.486324    1996.0705  0.053701986  0.056648577  0.067613571   0.17796413  0.038086185  0.039914287  0.050282349   0.12828282 
  405000   -1790445.2    15086.997   -2612.5642    77.232592    89.181209    81.486324    2002.9187  0.054433191  0.055859452  0.065070868   0.17536351  0.038965175  0.038276786  0.048784268   0.12602623 
  406000   -1790470.8    15019.021   -2527.2093    77.232592    89.181209    81.486324    1993.8944   0.05561621  0.055888232  0.065972082   0.17747652   0.03927428  0.038567526  0.048808288   0.12665009 
  407000   -1790494.4    15182.816   -2336.5067    77.232592    89.181209    81.486324    2015.6395  0.054635932  0.056975752  0.066408242   0.17801993  0.038751557  0.039034006   0.04915992   0.12694548 
  408000   -1790438.9    15078.849   -1979.5226    77.232592    89.181209    81.486324    2001.8371  0.054755652  0.056561513  0.066034579   0.17735174  0.038503377  0.039301919  0.048498722   0.12630402 
  409000   -1790477.1    15099.749   -2937.9149    77.232592    89.181209    81.486324    2004.6117  0.055141446  0.055441001  0.065745694   0.17632814  0.039429188  0.038679694  0.048176068   0.12628495 
  410000   -1790419.6    15124.519   -2267.0641    77.232592    89.181209    81.486324       2007.9   0.05540864  0.056547674  0.065417612   0.17737393  0.039309412  0.039006891  0.048099985   0.12641629 
  411000   -1790404.1    15010.309   -1937.5025    77.232592    89.181209    81.486324    1992.7378  0.054747919  0.057289398  0.066227356   0.17826467  0.039143186  0.039877055  0.048991021   0.12801126 
  412000   -1790464.3    15049.152   -2201.1204    77.232592    89.181209    81.486324    1997.8945  0.055385153  0.055601324  0.066374892   0.17736137  0.039456037  0.038939152  0.049496575   0.12789176 
  413000     -1790452    15057.417   -2055.9775    77.232592    89.181209    81.486324    1998.9918  0.055775523  0.058402394  0.067137346   0.18131526  0.039122168   0.04035244  0.048751126   0.12822573 
  414000   -1790433.6    15100.594   -1690.0084    77.232592    89.181209    81.486324    2004.7239  0.054525379  0.057236701  0.066418889   0.17818097  0.038381823  0.039333915  0.049167331   0.12688307 
  415000   -1790541.1    15124.806   -2466.0714    77.232592    89.181209    81.486324    2007.9382  0.055328861  0.056668459  0.065026145   0.17702346  0.038941626  0.039539006  0.047671503   0.12615214 
  416000   -1790445.8    14972.728   -2872.6421    77.232592    89.181209    81.486324    1987.7486  0.054442416  0.056994978   0.06650103   0.17793842  0.038071532  0.039471526  0.049217553   0.12676061 
  417000   -1790432.9    15126.099   -2431.9363    77.232592    89.181209    81.486324    2008.1099  0.055285617  0.056176247   0.06738678   0.17884864  0.039017591  0.039535078  0.049668188   0.12822086 
  418000   -1790498.7    15076.095   -2839.9855    77.232592    89.181209    81.486324    2001.4714  0.054953113  0.057289992  0.065371103   0.17761421  0.038476097  0.039528241  0.048934281   0.12693862 
  419000   -1790483.6    15156.897   -2256.8135    77.232592    89.181209    81.486324    2012.1985  0.053903206  0.054817196  0.065896319   0.17461672  0.038358973  0.038696912  0.048770654   0.12582654 
  420000   -1790485.1    15066.854   -2499.5183    77.232592    89.181209    81.486324    2000.2447  0.055204559  0.056569184  0.065817025   0.17759077  0.038445845  0.039497421  0.048818789   0.12676205 
  421000   -1790487.1    15069.488   -1999.4621    77.232592    89.181209    81.486324    2000.5943  0.055118642  0.055037411  0.065207758   0.17536381  0.039198219  0.038762133  0.048680334   0.12664069 
  422000   -1790556.7    15125.396   -2834.2412    77.232592    89.181209    81.486324    2008.0166  0.055613097  0.054879925  0.067026176    0.1775192   0.03947585  0.039042643  0.049727826   0.12824632 
  423000   -1790593.2    15114.922   -3173.0569    77.232592    89.181209    81.486324     2006.626  0.054622947  0.055464257  0.066316574   0.17640378  0.039284392  0.038710757  0.049424002   0.12741915 
  424000   -1790520.7    15142.202   -2592.4102    77.232592    89.181209    81.486324    2010.2477  0.055994373  0.056307082  0.067004761   0.17930622  0.040139261  0.040024584  0.049420738   0.12958458 
  425000   -1790525.6    15101.399   -2413.2767    77.232592    89.181209    81.486324    2004.8308  0.055718654  0.056794131  0.066661379   0.17917416  0.040268086   0.04058358   0.04862339   0.12947506 
  426000   -1790433.1     14957.51   -2524.8416    77.232592    89.181209    81.486324    1985.7283  0.055585564  0.054227966  0.065150632   0.17496416  0.039879748  0.038025825  0.048657883   0.12656346 
  427000   -1790484.1    15007.307   -2989.9213    77.232592    89.181209    81.486324    1992.3393  0.055228324  0.056150985  0.066091668   0.17747098  0.039435779  0.039209921  0.049799043   0.12844474 
  428000   -1790545.6    15010.707   -2711.6598    77.232592    89.181209    81.486324    1992.7907  0.055390607  0.056258703  0.068066688     0.179716  0.039255442  0.039208216  0.050089404   0.12855306 
  429000   -1790488.6    14971.592   -2360.2208    77.232592    89.181209    81.486324    1987.5979  0.055325164  0.057343586  0.067538026   0.18020678  0.039468662  0.040349329   0.05054749   0.13036548 
  430000     -1790468    15063.487   -2045.0474    77.232592    89.181209    81.486324    1999.7977  0.055442986  0.055121776  0.066675939    0.1772407  0.038862001  0.038603446  0.049136701   0.12660215 
  431000   -1790626.5    15020.814   -3747.0988    77.232592    89.181209    81.486324    1994.1324  0.055039274  0.056594925  0.065311018   0.17694522  0.038772934  0.040422633  0.049158962   0.12835453 
  432000   -1790565.4    15041.552    -3391.548    77.232592    89.181209    81.486324    1996.8856  0.054656559  0.057792557  0.067619408   0.18006852  0.038550204  0.040401813  0.050011833   0.12896385 
  433000   -1790388.8    15076.902   -2002.3498    77.232592    89.181209    81.486324    2001.5786  0.056627706  0.055867032   0.06800111   0.18049585  0.040269687  0.038745372  0.050297555   0.12931261 
  434000   -1790484.8     14988.88   -2505.6093    77.232592    89.181209    81.486324     1989.893  0.055983701   0.05761406  0.067982659   0.18158042  0.040260244  0.040827929    0.0514172   0.13250537 
  435000   -1790465.2    14909.501   -3079.2923    77.232592    89.181209    81.486324    1979.3547  0.055634853  0.056674631   0.06835212    0.1806616  0.038909472  0.039488692  0.050246542   0.12864471 
  436000   -1790502.2    15001.632   -2980.6635    77.232592    89.181209    81.486324    1991.5859  0.055015937  0.057464638  0.066317215   0.17879779  0.039132921  0.040990856  0.048171811   0.12829559 
  437000   -1790537.3    15119.203   -2608.4168    77.232592    89.181209    81.486324    2007.1944  0.056041061  0.054848933  0.067953218   0.17884321  0.038679713  0.038402368  0.050542652   0.12762473 
  438000     -1790428    15064.415   -2109.7507    77.232592    89.181209    81.486324    1999.9209  0.058237982  0.056998582  0.067843371   0.18307993  0.041342728  0.040557432  0.050759864   0.13266002 
  439000   -1790429.3    15021.486   -2075.9012    77.232592    89.181209    81.486324    1994.2216  0.056897131  0.056054379  0.068500624   0.18145213  0.040306975  0.039066818  0.049931714   0.12930551 
  440000   -1790431.9    15039.121   -2491.3451    77.232592    89.181209    81.486324    1996.5629  0.056200489  0.055625327  0.066329256   0.17815507  0.039829939  0.038661339  0.048530439   0.12702172 
  441000   -1790486.5    15068.933   -3015.1754    77.232592    89.181209    81.486324    2000.5207  0.056589744   0.05739036  0.066634809   0.18061491  0.039444847  0.039870107  0.049445709   0.12876066 
  442000   -1790590.9    15081.833   -3003.6238    77.232592    89.181209    81.486324    2002.2332  0.056544091  0.056497128   0.06830557   0.18134679  0.039642588  0.039309165  0.050011927   0.12896368 
  443000   -1790510.6    15035.855   -2908.1348    77.232592    89.181209    81.486324    1996.1292  0.058137214  0.056607645  0.068183922   0.18292878  0.039868803  0.039833584  0.051915363   0.13161775 
  444000     -1790497    15045.618   -2519.0948    77.232592    89.181209    81.486324    1997.4254  0.056143962  0.055404564  0.067158083   0.17870661  0.039609577  0.038706501  0.051116602   0.12943268 
  445000   -1790444.5      15124.7   -2473.7968    77.232592    89.181209    81.486324    2007.9241  0.057180682  0.057142487   0.06842812   0.18275129  0.040532117  0.039810931  0.050704878   0.13104793 
  446000   -1790481.8    15016.646   -2720.8979    77.232592    89.181209    81.486324    1993.5791  0.056791895   0.05613761  0.067878666   0.18080817  0.039519807  0.039248679  0.050774249   0.12954274 
  447000   -1790470.2    15130.284   -2781.9382    77.232592    89.181209    81.486324    2008.6655  0.059023012  0.056861001  0.069596678   0.18548069  0.041287616  0.039401246  0.053311155   0.13400002 
  448000   -1790543.1    15015.426   -3204.5985    77.232592    89.181209    81.486324    1993.4171  0.057122374  0.056593224  0.068139585   0.18185518  0.039949073  0.040002179  0.050865652    0.1308169 
  449000   -1790408.3    15139.084   -1632.2837    77.232592    89.181209    81.486324    2009.8337  0.056365504  0.057218311  0.067650256   0.18123407  0.038979495  0.039627772  0.050527376   0.12913464 
  450000   -1790339.9    15061.908   -2046.3773    77.232592    89.181209    81.486324     1999.588   0.05679629  0.056950496  0.067903233   0.18165002  0.038981614  0.038990099  0.050829521   0.12880123 
  451000   -1790485.2    15175.541   -2112.6944    77.232592    89.181209    81.486324    2014.6737  0.056842009  0.057820836  0.067491546   0.18215439  0.039008611  0.039839671  0.049885443   0.12873372 
  452000   -1790476.7    14923.717   -3601.8175    77.232592    89.181209    81.486324    1981.2421  0.057205304   0.05640544  0.069374201   0.18298494  0.039991489  0.039325315  0.052142242   0.13145905 
  453000   -1790515.3    15086.605   -2603.1468    77.232592    89.181209    81.486324    2002.8667  0.058374277    0.0557065  0.067219197   0.18129997  0.039847131  0.038928368  0.049656935   0.12843243 
  454000   -1790490.7    14955.127   -2883.1013    77.232592    89.181209    81.486324     1985.412   0.05773498  0.056313188  0.067740111   0.18178828  0.040945826  0.040232833  0.050212987   0.13139165 
  455000   -1790406.9    15158.203   -2250.4368    77.232592    89.181209    81.486324    2012.3719   0.05666787  0.056380987  0.067245361   0.18029422  0.039359325   0.03964115  0.049618751   0.12861923 
  456000   -1790459.9    15063.285   -2472.4132    77.232592    89.181209    81.486324    1999.7709  0.058373769  0.057167313  0.065646911   0.18118799  0.040826834  0.040022604  0.049383978   0.13023342 
  457000   -1790482.5    15016.965   -3115.5054    77.232592    89.181209    81.486324    1993.6215  0.057535402  0.056676259  0.067652816   0.18186448  0.039175931  0.039587368  0.050547298    0.1293106 
  458000   -1790524.5    15032.068   -3036.2212    77.232592    89.181209    81.486324    1995.6266    0.0582056  0.058445008  0.068333379   0.18498399  0.039944211  0.041283175  0.051278415    0.1325058 
  459000   -1790562.8    15136.364   -2989.9039    77.232592    89.181209    81.486324    2009.4726  0.057011717  0.057023941  0.068112966   0.18214862  0.039678431  0.039365052  0.050444044   0.12948753 
  460000   -1790508.8    15125.507   -2580.4352    77.232592    89.181209    81.486324    2008.0313  0.056134214  0.056497103  0.067032546   0.17966386  0.039054112  0.039476887  0.049532135   0.12806313 
  461000   -1790413.4    15020.384   -2553.9949    77.232592    89.181209    81.486324    1994.0754  0.058868673  0.058410857  0.067383889   0.18466342  0.041066016  0.040140095  0.049591432   0.13079754 
  462000   -1790481.7    15078.811   -2703.9509    77.232592    89.181209    81.486324    2001.8321  0.057189495  0.056706058  0.068095136   0.18199069  0.038928001  0.038962306  0.050087051   0.12797736 
  463000   -1790504.7    14956.843   -3200.9094    77.232592    89.181209    81.486324    1985.6398  0.056862707  0.057034291  0.066100436   0.17999743  0.039177686  0.038756451  0.048726538   0.12666068 
  464000     -1790539    15045.966   -2760.7847    77.232592    89.181209    81.486324    1997.4716  0.055450927  0.057339402  0.068260647   0.18105098  0.037790201  0.039819534  0.050241703   0.12785144 
  465000     -1790460    15057.011   -2264.0703    77.232592    89.181209    81.486324    1998.9379  0.056912077  0.058719153  0.067271073    0.1829023  0.038394247  0.040518164  0.049826367   0.12873878 
  466000   -1790487.8    14992.264   -2508.1762    77.232592    89.181209    81.486324    1990.3423  0.056968787  0.057325914  0.068591716   0.18288642  0.039711013  0.038516464  0.050153846   0.12838132 
  467000   -1790556.2    15047.545   -3032.1903    77.232592    89.181209    81.486324    1997.6812   0.05712312  0.058290584  0.067228312   0.18264202  0.039830765  0.039434006  0.050727122   0.12999189 
  468000   -1790490.8    15076.426   -2306.2218    77.232592    89.181209    81.486324    2001.5154  0.059096078  0.059318524  0.068683046   0.18709765  0.040463502  0.041059743  0.051047611   0.13257086 
  469000   -1790350.8    15062.901   -2099.0518    77.232592    89.181209    81.486324    1999.7198  0.057786747  0.057621103  0.067608618   0.18301647  0.039928709   0.03946893   0.05079079   0.13018843 
  470000     -1790546     15023.58   -2699.8894    77.232592    89.181209    81.486324    1994.4997  0.057793696  0.057388146  0.067723119   0.18290496  0.039929582  0.039085888  0.049036379   0.12805185 
  471000   -1790458.9    15080.983    -2155.399    77.232592    89.181209    81.486324    2002.1203  0.057468568  0.059585726  0.069565744   0.18662004  0.039689534  0.041945205  0.051985183   0.13361992 
  472000   -1790546.3    15071.908   -2913.3666    77.232592    89.181209    81.486324    2000.9156  0.057697356  0.057101495   0.06811454   0.18291339  0.039277841  0.039027761  0.050277296    0.1285829 
  473000   -1790447.8     15077.24   -2045.2769    77.232592    89.181209    81.486324    2001.6234  0.057341031  0.057514675  0.067625791    0.1824815  0.039214628  0.039549342  0.049646105   0.12841008 
  474000   -1790490.4      15070.6   -2247.5439    77.232592    89.181209    81.486324     2000.742  0.057257394  0.059867282  0.068768503   0.18589318  0.039484585  0.041452444  0.049893411   0.13083044 
  475000   -1790584.6    15037.786   -3232.3926    77.232592    89.181209    81.486324    1996.3857  0.057807568  0.056578637  0.067670926   0.18205713  0.039738999  0.038493122  0.049461089   0.12769321 
  476000   -1790483.3    14962.095   -2945.6045    77.232592    89.181209    81.486324     1986.337  0.058086344  0.058943082     0.068258   0.18528743  0.039795298  0.040320059  0.050805763   0.13092112 
  477000   -1790513.4    15046.737   -2855.4841    77.232592    89.181209    81.486324     1997.574  0.057466598   0.05716474  0.068614886   0.18324622  0.038433529  0.039619407  0.050175277   0.12822821 
  478000   -1790463.6    15006.816   -2570.8757    77.232592    89.181209    81.486324    1992.2741  0.056827304  0.057608585  0.068395044   0.18283093  0.039102457  0.039332798   0.05009412   0.12852938 
  479000   -1790516.6    15067.726   -2755.6264    77.232592    89.181209    81.486324    2000.3604   0.05840111  0.058782766  0.068874314   0.18605819  0.040157039  0.040760608  0.050787651    0.1317053 
  480000   -1790493.2    15097.694   -2447.0461    77.232592    89.181209    81.486324    2004.3389  0.058726114   0.05927479  0.067458148   0.18545905  0.040434335  0.040971049  0.050406908   0.13181229 
  481000   -1790379.2    14986.705   -1995.4836    77.232592    89.181209    81.486324    1989.6042  0.058854014  0.060209529  0.069411886   0.18847543  0.040195096  0.041995907  0.050981406   0.13317241 
  482000   -1790533.6    15086.772   -3181.3038    77.232592    89.181209    81.486324    2002.8888  0.058336182  0.058758832  0.068524591    0.1856196  0.039513016  0.039366071  0.051416465   0.13029555 
  483000   -1790414.7    15042.117   -2097.2204    77.232592    89.181209    81.486324    1996.9605  0.057940977   0.05785978  0.069959431   0.18576019  0.039470221  0.039251982   0.05133951   0.13006171 
  484000   -1790453.3    15147.435   -2941.0581    77.232592    89.181209    81.486324    2010.9423  0.057835075  0.057419633  0.069196298   0.18445101  0.039303591  0.039816038  0.051118766   0.13023839 
  485000     -1790531    15103.043   -3150.1094    77.232592    89.181209    81.486324    2005.0489   0.05765207  0.057306552  0.069049812   0.18400843  0.039989156  0.039835272   0.05115659   0.13098102 
  486000   -1790498.4    15096.497   -2715.4684    77.232592    89.181209    81.486324      2004.18  0.057920393  0.057770521  0.069023112   0.18471403  0.039160845  0.040017955  0.050639435   0.12981824 
  487000   -1790560.7    15099.201   -2811.2082    77.232592    89.181209    81.486324    2004.5389  0.058146564  0.057562484  0.068445208   0.18415426  0.039255579  0.039770641  0.050652991   0.12967921 
  488000   -1790555.5    15040.533   -3096.3287    77.232592    89.181209    81.486324    1996.7502  0.058849377  0.057180251  0.069278246   0.18530787  0.039504329  0.039512532  0.050105106   0.12912197 
  489000   -1790432.2     15188.26   -2181.0066    77.232592    89.181209    81.486324    2016.3622  0.059045509  0.058496456  0.069102772   0.18664474  0.039049422  0.039557438  0.050821431   0.12942829 
  490000   -1790432.8    15106.724   -2637.0487    77.232592    89.181209    81.486324    2005.5377  0.058269749  0.057954513  0.068237564   0.18446183  0.040424994  0.039880216  0.050891408   0.13119662 
  491000   -1790521.9    14986.095   -2991.9451    77.232592    89.181209    81.486324    1989.5232  0.058704007  0.058080471  0.067888597   0.18467307  0.039836255  0.040727073  0.049948759   0.13051209 
  492000   -1790542.2    15088.523   -2890.2436    77.232592    89.181209    81.486324    2003.1214  0.057679428  0.057070151  0.070020608   0.18477019   0.03897653  0.039369406  0.050767598   0.12911353 
  493000   -1790526.5    15031.714   -3021.5668    77.232592    89.181209    81.486324    1995.5795  0.057905655   0.05861514  0.068863552   0.18538435  0.039157307  0.040029269  0.051815926    0.1310025 
  494000   -1790440.6    15035.034   -2785.9546    77.232592    89.181209    81.486324    1996.0202  0.058134405  0.058367793  0.067726951   0.18422915  0.039493387  0.040636005  0.051132892   0.13126228 
  495000   -1790464.5    15068.686    -2086.986    77.232592    89.181209    81.486324    2000.4878  0.058178134  0.058599438  0.067895985   0.18467356  0.039635889  0.040447375  0.050594624   0.13067789 
  496000   -1790469.4    15091.814   -2660.7663    77.232592    89.181209    81.486324    2003.5583  0.057386942  0.058555542  0.069286169   0.18522865  0.039069319  0.040880228  0.051736685   0.13168623 
  497000   -1790520.3    15038.297   -2833.7289    77.232592    89.181209    81.486324    1996.4535  0.058011214  0.057906537  0.067982287   0.18390004     0.039513  0.039345384  0.051282763   0.13014115 
  498000   -1790495.6    15017.478   -3019.0723    77.232592    89.181209    81.486324    1993.6895  0.057713892  0.058568478  0.069691867   0.18597424  0.039024355  0.040024871  0.051793955   0.13084318 
  499000   -1790494.2    15070.829    -2516.092    77.232592    89.181209    81.486324    2000.7723  0.059295546   0.05747724  0.069316402   0.18608919  0.039601516  0.039915091  0.051198995    0.1307156 
  500000   -1790504.4    15116.743   -2340.3676    77.232592    89.181209    81.486324    2006.8678  0.058857902  0.057524764  0.069367137    0.1857498  0.039498449  0.040207883  0.051594207   0.13130054 
  501000   -1790514.9    15035.339    -2467.085    77.232592    89.181209    81.486324    1996.0607  0.059541732  0.057998919  0.069273336   0.18681399   0.03970187   0.04013178  0.051729926   0.13156358 
  502000   -1790504.4    15077.335   -2719.6876    77.232592    89.181209    81.486324    2001.6361  0.057830932  0.057109855  0.069446566   0.18438735  0.040181212  0.040122697  0.052316747   0.13262066 
  503000   -1790401.3    15011.596   -1901.6782    77.232592    89.181209    81.486324    1992.9087  0.057691748  0.057539528  0.069128344   0.18435962  0.039770774  0.040295374  0.051662584   0.13172873 
  504000   -1790476.8    14978.056   -3218.2099    77.232592    89.181209    81.486324     1988.456  0.058506585  0.057668417  0.068213785   0.18438879  0.039204431  0.039598542  0.050674734   0.12947771 
  505000   -1790501.3    15092.014   -2549.1145    77.232592    89.181209    81.486324    2003.5848  0.057864409  0.056997402  0.068519559   0.18338137  0.039778802  0.039669926  0.051508521   0.13095725 
  506000   -1790538.9     15113.01   -2965.1889    77.232592    89.181209    81.486324    2006.3721  0.057720586  0.058503221  0.068934829   0.18515864  0.039488183   0.04022285  0.050532711   0.13024374 
  507000   -1790504.6    15077.666   -2694.7362    77.232592    89.181209    81.486324    2001.6801  0.057380812  0.058089728  0.068766311   0.18423685  0.039453441  0.040125439  0.052430252   0.13200913 
  508000   -1790553.5    15014.859   -3642.1149    77.232592    89.181209    81.486324    1993.3419  0.057679566   0.05776457  0.069954944   0.18539908  0.039058337   0.03986799  0.052227908   0.13115424 
  509000   -1790498.1    15100.948    -3052.027    77.232592    89.181209    81.486324    2004.7709   0.05801553   0.05854987  0.069310463   0.18587586  0.039781548  0.040567393  0.051190109   0.13153905 
  510000   -1790471.7    14985.083   -2757.8119    77.232592    89.181209    81.486324    1989.3888   0.05768966  0.058808015  0.070430994   0.18692867  0.039742958  0.039387585  0.052082258    0.1312128 
  511000   -1790516.2    14971.012   -3519.4219    77.232592    89.181209    81.486324    1987.5208  0.058675118  0.060536576  0.067520944   0.18673264  0.039347201  0.041523245  0.049945608   0.13081605 
  512000   -1790431.6    15046.644     -2850.28    77.232592    89.181209    81.486324    1997.5615  0.058698048  0.060094559  0.068120403   0.18691301  0.039976763  0.040441712   0.05115671   0.13157518 
  513000     -1790606    15109.744   -3153.1461    77.232592    89.181209    81.486324    2005.9386  0.057931182  0.057952061  0.068946134   0.18482938  0.040031033  0.039708767  0.050666254   0.13040605 
  514000   -1790474.4    15057.753   -2290.1269    77.232592    89.181209    81.486324    1999.0363  0.060068813  0.058539792  0.070776669   0.18938527  0.040744055  0.040225091  0.052557366   0.13352651 
  515000   -1790438.3    14984.604   -2942.0626    77.232592    89.181209    81.486324    1989.3252  0.059906285  0.058251013  0.068371524   0.18652882  0.040010251  0.039957986  0.051004864    0.1309731 
  516000   -1790484.9    15164.386   -2525.3493    77.232592    89.181209    81.486324    2013.1928  0.059049246  0.058641697   0.07101998   0.18871092  0.039969541  0.040181762   0.05254459   0.13269589 
  517000   -1790509.3    14951.698     -3339.35    77.232592    89.181209    81.486324    1984.9567  0.059566758  0.059466319   0.06890869   0.18794177   0.04095619  0.040434764  0.051516931   0.13290789 
  518000   -1790529.2    14995.017   -3418.8433    77.232592    89.181209    81.486324    1990.7077  0.060549711  0.058974365  0.070728794   0.19025287  0.040549212  0.040860674  0.052804139   0.13421403 
  519000   -1790512.3    15033.466   -2282.1509    77.232592    89.181209    81.486324    1995.8122   0.06016886  0.059367934  0.070147077   0.18968387  0.041029574  0.039909632   0.05130878   0.13224799 
  520000   -1790450.5    15039.246    -2836.344    77.232592    89.181209    81.486324    1996.5795  0.059294334  0.059504283   0.06998302   0.18878164  0.040244872  0.040859897  0.051511592   0.13261636 
  521000   -1790469.5    15019.543    -2914.859    77.232592    89.181209    81.486324    1993.9637  0.059740843  0.059451256  0.069878567   0.18907067  0.040237046  0.041350046  0.053523101   0.13511019 
  522000   -1790484.9    15139.125   -2956.5205    77.232592    89.181209    81.486324    2009.8391  0.061080979  0.060339943  0.069731399   0.19115232  0.041404049  0.041120075  0.051382733   0.13390686 
  523000   -1790533.1     15000.72   -2838.4465    77.232592    89.181209    81.486324    1991.4648  0.060905901  0.060473844  0.070770558    0.1921503  0.041422762  0.040769695  0.052969842    0.1351623 
  524000   -1790463.5    15139.111   -1756.7351    77.232592    89.181209    81.486324    2009.8374  0.059591895  0.059407588  0.068708617    0.1877081  0.040399574  0.041014353   0.05059566   0.13200959 
  525000   -1790480.4    15142.634   -3141.5326    77.232592    89.181209    81.486324    2010.3051   0.05919529  0.061743081  0.071260431    0.1921988   0.04048225  0.041536007  0.051984169   0.13400243 
  526000   -1790519.2    15075.719   -2207.0935    77.232592    89.181209    81.486324    2001.4215  0.061345984  0.058519242  0.069400722   0.18926595  0.042092059   0.03996646  0.051955601   0.13401412 
  527000   -1790475.5    15019.499   -3301.2505    77.232592    89.181209    81.486324    1993.9578  0.059316306  0.059579644  0.069727345   0.18862329  0.040585556  0.041065238  0.051569548   0.13322034 
  528000   -1790431.4    15202.425   -1958.0543    77.232592    89.181209    81.486324    2018.2427  0.060049065  0.059764274  0.074613069   0.19442641  0.040813699  0.041215657  0.056039865   0.13806922 
  529000   -1790445.6    14981.272   -2355.2459    77.232592    89.181209    81.486324     1988.883   0.05948752  0.059094035   0.06957568   0.18815723  0.040267151  0.040102002  0.051411681   0.13178083 
  530000   -1790541.4    15013.921   -2987.7109    77.232592    89.181209    81.486324    1993.2173  0.058407146  0.060357792  0.070119631   0.18888457  0.039722866  0.041345143  0.052463755   0.13353176 
  531000     -1790548    15071.581   -3053.8677    77.232592    89.181209    81.486324    2000.8722  0.057977606   0.05883887  0.071134828    0.1879513  0.039969006   0.04058113  0.052735509   0.13328565 
  532000     -1790435    15065.816   -2422.4768    77.232592    89.181209    81.486324    2000.1068  0.058307475  0.060274209  0.069590329   0.18817201  0.039675928   0.04025648  0.051800015   0.13173242 
  533000   -1790426.1    15034.536   -2621.1499    77.232592    89.181209    81.486324    1995.9542   0.06003453  0.059331473  0.071254794    0.1906208  0.041215959  0.040133203  0.053403201   0.13475236 
  534000   -1790376.9    14959.677   -2087.9409    77.232592    89.181209    81.486324     1986.016  0.058792047   0.05955069  0.070256399   0.18859914  0.040279203  0.041012801  0.051567402   0.13285941 
  535000   -1790573.6    15080.066   -2698.2585    77.232592    89.181209    81.486324    2001.9987  0.060913643  0.060691288   0.06840074   0.19000567  0.040981689  0.041080668  0.050050708   0.13211307 
  536000   -1790501.8    14973.564   -3050.5238    77.232592    89.181209    81.486324    1987.8596  0.059604143  0.060088746  0.071216699   0.19090959  0.040184561  0.040401823  0.052709145   0.13329553 
  537000   -1790416.5    15176.567   -1741.5295    77.232592    89.181209    81.486324    2014.8099  0.060648759  0.060409883  0.069310672   0.19036931  0.041283706  0.040633691   0.05096393   0.13288133 
  538000   -1790474.3    15038.308    -2493.023    77.232592    89.181209    81.486324     1996.455  0.060916719  0.059782339  0.069649999   0.19034906  0.041481265  0.040280485  0.051334301   0.13309605 
  539000   -1790525.1    15112.343   -3003.5021    77.232592    89.181209    81.486324    2006.2836  0.059161191  0.060343154  0.070937264   0.19044161  0.039588658    0.0399176   0.05297586   0.13248212 
  540000     -1790531    15070.517   -3147.3318    77.232592    89.181209    81.486324    2000.7309  0.059553114  0.059330725  0.069320027   0.18820387  0.040124845  0.040160182  0.050999365   0.13128439 
  541000   -1790508.8    15000.708   -3531.0469    77.232592    89.181209    81.486324    1991.4633  0.060419448  0.060082145  0.070266885   0.19076848  0.040565317  0.041157706  0.051709641   0.13343266 
  542000   -1790467.8    15079.773   -2503.7796    77.232592    89.181209    81.486324    2001.9597  0.059985303   0.05997023  0.068551989   0.18850752  0.040652055  0.040067744  0.051283939   0.13200374 
  543000   -1790402.9    15076.381   -2916.8227    77.232592    89.181209    81.486324    2001.5095  0.058873817   0.06005801  0.070599773    0.1895316  0.040190744  0.039913882  0.052725767   0.13283039 
  544000   -1790426.4     15101.88   -1914.3241    77.232592    89.181209    81.486324    2004.8945  0.058909579  0.061406127  0.069440062   0.18975577  0.040231661  0.041878957  0.051014899   0.13312552 
  545000   -1790441.5    15072.991   -2239.2514    77.232592    89.181209    81.486324    2001.0594  0.058784287  0.059931107  0.069097018   0.18781241  0.040085274  0.040262396  0.051123134    0.1314708 
  546000   -1790551.8    14999.464   -3141.7269    77.232592    89.181209    81.486324    1991.2981  0.059859407  0.061881375  0.072066686   0.19380747  0.040113174  0.041511891  0.054801753   0.13642682 
  547000   -1790485.6    15039.983   -3050.6321    77.232592    89.181209    81.486324    1996.6773  0.059938531  0.061327725  0.068437253   0.18970351  0.040113216  0.040565465  0.050711529   0.13139021 
  548000   -1790515.7    15109.512   -1980.1328    77.232592    89.181209    81.486324    2005.9078  0.059046436  0.061923617  0.070186922   0.19115697  0.039744271  0.041198926  0.051245668   0.13218886 
  549000   -1790451.6    15023.102   -2638.4755    77.232592    89.181209    81.486324    1994.4362  0.059797651  0.059758942  0.069872031   0.18942862  0.039376353  0.039273641  0.051515183   0.13016518 
  550000   -1790480.2    15032.306   -3064.6828    77.232592    89.181209    81.486324    1995.6582  0.061556665  0.061048958  0.069917415   0.19252304  0.040895366  0.041252562  0.051487724   0.13363565 
  551000   -1790528.3    15083.639   -2533.1922    77.232592    89.181209    81.486324    2002.4729  0.061061895  0.060834406  0.071227627   0.19312393  0.041002614   0.04096954  0.052157828   0.13412998 
  552000   -1790560.6    15104.243   -2773.3362    77.232592    89.181209    81.486324    2005.2084  0.060469378  0.060188756  0.068766708   0.18942484   0.04050118  0.040489067  0.050180724   0.13117097 
  553000     -1790525    15142.153   -2912.0163    77.232592    89.181209    81.486324    2010.2412  0.061395879  0.060783645  0.070272614   0.19245214  0.041699188  0.041156214  0.051639484   0.13449489 
  554000   -1790499.5    15173.588    -2774.907    77.232592    89.181209    81.486324    2014.4145  0.061133524  0.061631126   0.07102843   0.19379308  0.041625951  0.041782951  0.052486772   0.13589567 
  555000   -1790452.1    15038.895   -2312.8643    77.232592    89.181209    81.486324    1996.5328  0.061529207  0.060333724  0.069134827   0.19099776   0.04152593  0.040720795  0.050945888   0.13319261 
  556000   -1790458.5    15057.443   -2534.6942    77.232592    89.181209    81.486324    1998.9953  0.061010477  0.061418268  0.071471446   0.19390019  0.041443448  0.040801034  0.052390885   0.13463537 
  557000   -1790436.1    15090.917   -2312.2623    77.232592    89.181209    81.486324    2003.4392  0.061058791   0.06205223   0.06999834   0.19310936  0.040135847  0.041805547  0.051815881   0.13375728 
  558000   -1790561.5    15071.656   -2953.7282    77.232592    89.181209    81.486324    2000.8822  0.060903273  0.060935953  0.069848129   0.19168735  0.040900741  0.040064131  0.051617251   0.13258212 
  559000   -1790417.1    15000.456   -2368.1433    77.232592    89.181209    81.486324    1991.4297  0.060189448  0.061004858  0.071823528   0.19301783  0.040196275  0.040840746  0.052765004   0.13380202 
  560000   -1790455.9    15063.292   -1732.2837    77.232592    89.181209    81.486324    1999.7718  0.061803098  0.060060675  0.071111362   0.19297514  0.041185266  0.040012904  0.052544151   0.13374232 
  561000   -1790499.6    15037.031      -2895.1    77.232592    89.181209    81.486324    1996.2854  0.061308601  0.063586327  0.070994001   0.19588893  0.040520794   0.04293031  0.052857899     0.136309 
  562000   -1790462.3    15068.894    -2479.125    77.232592    89.181209    81.486324    2000.5154  0.059868985  0.060728989  0.070198167   0.19079614  0.040086661  0.039735777  0.051452727   0.13127516 
  563000   -1790502.2    15060.222   -2879.1736    77.232592    89.181209    81.486324    1999.3642  0.060217649  0.060397078  0.070448171    0.1910629  0.040840754  0.039800116  0.051083193   0.13172406 
  564000   -1790388.9    15043.564   -2239.6477    77.232592    89.181209    81.486324    1997.1527  0.059958208   0.06276808  0.070089861   0.19281615  0.040723108  0.042611437  0.052316164   0.13565071 
  565000     -1790439    15198.271   -3059.3738    77.232592    89.181209    81.486324    2017.6913  0.060753979  0.060788176  0.069959658   0.19150181  0.041156958  0.040486043  0.050163782   0.13180678 
  566000   -1790455.5     15105.33   -2503.4111    77.232592    89.181209    81.486324    2005.3526  0.060449541  0.061377242  0.070350206   0.19217699   0.04148542  0.040993604   0.05203757   0.13451659 
  567000   -1790416.8    15061.953    -2725.192    77.232592    89.181209    81.486324     1999.594  0.060035187  0.061615977  0.068887543   0.19053871  0.040887989  0.041161515  0.051026963   0.13307647 
  568000   -1790499.4    15080.505   -3151.1153    77.232592    89.181209    81.486324    2002.0569  0.060280302  0.062197522  0.070215679    0.1926935  0.040234439  0.041438258  0.051426482   0.13309918 
  569000   -1790575.7    15084.569   -2961.4277    77.232592    89.181209    81.486324    2002.5964  0.060736973  0.059492018  0.070956404   0.19118539  0.040823487  0.039429446  0.051925452   0.13217838 
  570000   -1790421.6    15058.454   -2348.8616    77.232592    89.181209    81.486324    1999.1295  0.059923847  0.062257809  0.070141141    0.1923228  0.040294588  0.041718967  0.051862157   0.13387571 
  571000   -1790504.3    14960.941   -2840.6183    77.232592    89.181209    81.486324    1986.1839  0.059610333  0.061598126  0.070598151   0.19180661  0.040154449  0.040195851  0.052645407   0.13299571 
  572000   -1790435.2    14967.687   -2603.3589    77.232592    89.181209    81.486324    1987.0794  0.058981721  0.061205697  0.070547002   0.19073442  0.039937233   0.04015291  0.052107613   0.13219776 
  573000   -1790513.8    15091.983   -2661.0185    77.232592    89.181209    81.486324    2003.5807  0.060016064  0.061528932  0.070161922   0.19170692  0.040284759  0.040225751  0.052051062   0.13256157 
  574000   -1790572.5    15034.747   -3237.5556    77.232592    89.181209    81.486324    1995.9821  0.058607935  0.061656857  0.070679046   0.19094384  0.039982625  0.041689719  0.053541382   0.13521373 
  575000   -1790410.9    15093.284   -2066.5607    77.232592    89.181209    81.486324    2003.7534  0.060423237  0.061716758  0.070174718   0.19231471  0.041197555  0.041176028  0.051587689   0.13396127 
  576000   -1790498.5    15031.884   -2559.9779    77.232592    89.181209    81.486324    1995.6021  0.059839321  0.061121599  0.070486759   0.19144768  0.041043324  0.040883245   0.05267746   0.13460403 
  577000   -1790452.1    15091.177   -2573.5871    77.232592    89.181209    81.486324    2003.4737  0.059641221  0.061203494  0.070970973   0.19181569  0.040682064   0.04145849  0.053132228   0.13527278 
  578000   -1790472.5    15042.735   -2666.1141    77.232592    89.181209    81.486324    1997.0426  0.059579385  0.061645535   0.06986726   0.19109218  0.040110077  0.040203115   0.05195976   0.13227295 
  579000   -1790480.8     15012.64   -2550.7039    77.232592    89.181209    81.486324    1993.0473  0.059965289  0.060397136  0.070904839   0.19126726  0.040128647  0.040083321   0.05211325   0.13232522 
  580000   -1790424.3    14973.632   -2358.2899    77.232592    89.181209    81.486324    1987.8686  0.059204168  0.062443301  0.071143269   0.19279074  0.039790915  0.042263316  0.052813637   0.13486787 
  581000   -1790574.3     15045.25   -3626.6402    77.232592    89.181209    81.486324    1997.3765  0.059647101  0.060382984  0.071365474   0.19139556  0.040557484  0.039790089  0.052287747   0.13263532 
  582000   -1790544.7     15031.45   -2897.5416    77.232592    89.181209    81.486324    1995.5445  0.060288657   0.06222156  0.071133521   0.19364374  0.040376005  0.041200747  0.052683037   0.13425979 
  583000   -1790459.7    15075.961   -2661.2941    77.232592    89.181209    81.486324    2001.4536  0.060442914  0.061775277   0.07119593   0.19341412  0.040943231  0.040500933  0.053250773   0.13469494 
  584000   -1790460.3    15028.281   -3077.0748    77.232592    89.181209    81.486324    1995.1238  0.060223016  0.062192044  0.071063877   0.19347894  0.041566555  0.041459633  0.053095397   0.13612159 
  585000   -1790514.7    15209.761   -2552.6325    77.232592    89.181209    81.486324    2019.2166  0.059061659  0.061730974  0.071616778   0.19240941  0.039648826   0.03998608  0.053023264   0.13265817 
  586000   -1790492.7    15033.636   -2118.6299    77.232592    89.181209    81.486324    1995.8347  0.060466356  0.061774675  0.070965404   0.19320644  0.040484894  0.040579111   0.05112091   0.13218492 
  587000   -1790490.8    15110.312   -2448.6918    77.232592    89.181209    81.486324     2006.014  0.060968845  0.062554988  0.071510682   0.19503451  0.040518519  0.041594907  0.052582518   0.13469594 
  588000   -1790581.4    15109.963   -3057.9971    77.232592    89.181209    81.486324    2005.9676  0.059392382  0.061453663  0.070340202   0.19118625  0.040026865  0.039943137  0.051778954   0.13174896 
  589000   -1790475.6    15046.277   -2867.9322    77.232592    89.181209    81.486324    1997.5128  0.060293093  0.062196764  0.071778468   0.19426832  0.040012867  0.041388079  0.053392981   0.13479393 
  590000   -1790451.4     14994.33   -2502.2616    77.232592    89.181209    81.486324    1990.6165  0.060540479  0.062162594  0.071407719   0.19411079  0.040473635  0.039907377  0.051526414   0.13190743 
  591000   -1790436.7    15050.566   -2699.0028    77.232592    89.181209    81.486324    1998.0822   0.06020671  0.062059616  0.070732889   0.19299922  0.040734125  0.040427355  0.051230347   0.13239183 
  592000   -1790479.4    15071.222   -3088.3407    77.232592    89.181209    81.486324    2000.8245  0.060818804  0.061504183   0.07366269   0.19598568  0.040194611  0.040472095  0.053960338   0.13462704 
  593000   -1790520.3    15136.339   -2619.7564    77.232592    89.181209    81.486324    2009.4693  0.060994767  0.061615751  0.071337355   0.19394787   0.04062569  0.041106755   0.05201054   0.13374299 
  594000   -1790512.7    15127.144   -2538.3791    77.232592    89.181209    81.486324    2008.2486  0.061397492  0.061682822  0.071040605   0.19412092  0.040661251  0.040382955  0.052426888   0.13347109 
  595000   -1790508.1    14996.362   -2496.0461    77.232592    89.181209    81.486324    1990.8862  0.060237476  0.062328826  0.071120942   0.19368724  0.040114655  0.040301538  0.052363321   0.13277951 
  596000   -1790471.8    15068.032   -2693.2178    77.232592    89.181209    81.486324    2000.4011   0.06085558  0.062534039  0.071319047   0.19470867  0.040957947  0.041995654  0.052872861   0.13582646 
  597000   -1790450.6    15024.595   -2426.5373    77.232592    89.181209    81.486324    1994.6345   0.06056255  0.062769274  0.072390609   0.19572243  0.040274157  0.041119042  0.053270858   0.13466406 
  598000   -1790481.5    15047.474    -2539.302    77.232592    89.181209    81.486324    1997.6717  0.061379391  0.063762661  0.071390315   0.19653237  0.041320271  0.042849309  0.051935012   0.13610459 
  599000   -1790514.9    14948.974   -3004.2919    77.232592    89.181209    81.486324    1984.5952  0.061134238  0.061263671  0.072770795    0.1951687  0.041244074  0.040051967  0.053632507   0.13492855 
  600000   -1790528.6    15124.564   -3151.1927    77.232592    89.181209    81.486324     2007.906  0.060402487  0.061883434   0.07296601   0.19525193  0.040283194  0.040988105  0.053622199    0.1348935 
  601000   -1790470.9    14966.539   -2870.0282    77.232592    89.181209    81.486324    1986.9271  0.061317297  0.061942014  0.072535449   0.19579476  0.041473204  0.040262428  0.053020612   0.13475624 
  602000   -1790556.5    15082.178   -2761.4736    77.232592    89.181209    81.486324     2002.279  0.060242691  0.062095879  0.073563296   0.19590187  0.040078783  0.040655494  0.053548589   0.13428287 
  603000   -1790439.3    14991.562   -2126.5162    77.232592    89.181209    81.486324     1990.249  0.061446775  0.061978407  0.071465962   0.19489114  0.040615116  0.041320963  0.052976032   0.13491211 
  604000   -1790434.7    15021.051   -2909.7923    77.232592    89.181209    81.486324    1994.1639  0.059844566  0.062542084  0.073234535   0.19562118  0.040193567  0.040328781  0.053281812   0.13380416 
  605000   -1790499.8    15169.972   -2790.2959    77.232592    89.181209    81.486324    2013.9344  0.061577733  0.062273563  0.072105376   0.19595667  0.041115269  0.040077366  0.053829134   0.13502177 
  606000   -1790431.7    15113.766   -2737.1528    77.232592    89.181209    81.486324    2006.4726   0.06207872  0.062652331  0.070099721   0.19483077  0.040696509  0.041261357   0.05178279   0.13374066 
  607000   -1790514.6     15130.55   -2734.9981    77.232592    89.181209    81.486324    2008.7008  0.059702071  0.062913431  0.072340728   0.19495623  0.039802914   0.04142426  0.053701297   0.13492847 
  608000   -1790558.3    15099.858   -2507.9544    77.232592    89.181209    81.486324    2004.6261  0.059382672  0.062980889  0.069558025   0.19192159  0.039410384  0.040690287   0.05057378   0.13067445 
  609000   -1790520.7    15000.491   -3406.8757    77.232592    89.181209    81.486324    1991.4344  0.061387178  0.062953352  0.072013296   0.19635383  0.042031656  0.042033816  0.052753966   0.13681944 
  610000   -1790445.3    15051.576   -2644.9326    77.232592    89.181209    81.486324    1998.2163  0.060052219  0.062849536  0.071538585   0.19444034  0.040807739  0.041795967  0.052441587   0.13504529 
  611000   -1790450.6    14954.954    -2430.543    77.232592    89.181209    81.486324     1985.389  0.060619173  0.062676575    0.0710101   0.19430585  0.041223831  0.041123712   0.05197432   0.13432186 
  612000   -1790457.3     15001.55   -2980.9641    77.232592    89.181209    81.486324     1991.575   0.06069037  0.063166645  0.071705592   0.19556261  0.040972747  0.041863771  0.052212491   0.13504901 
  613000   -1790357.3    15058.054   -2456.8251    77.232592    89.181209    81.486324    1999.0763  0.060639134   0.06260794  0.071472949   0.19472002  0.040380853  0.041345838  0.052578392   0.13430508 
  614000   -1790536.3    15040.411   -3122.3485    77.232592    89.181209    81.486324    1996.7341  0.061370498  0.062556507  0.070496234   0.19442324  0.041138869  0.040462315   0.05081736   0.13241854 
  615000   -1790451.4    14977.163   -2262.8855    77.232592    89.181209    81.486324    1988.3375  0.061568084  0.061988304  0.070330174   0.19388656  0.040647254   0.04086418  0.051029803   0.13254124 
  616000   -1790518.5    15018.368   -2636.7724    77.232592    89.181209    81.486324    1993.8077  0.060844585  0.062328586  0.071334184   0.19450736  0.040241717  0.041161331  0.051935547    0.1333386 
  617000   -1790471.1    15009.173    -2654.906    77.232592    89.181209    81.486324     1992.587  0.060449083  0.062485218  0.069955293   0.19288959  0.040645939  0.040988275   0.05162299    0.1332572 
  618000   -1790478.2     15023.32   -2738.8818    77.232592    89.181209    81.486324    1994.4652  0.061094891  0.061872885  0.071647838   0.19461561  0.040736675   0.04039397  0.052451215   0.13358186 
  619000   -1790478.6    15092.209   -2077.8355    77.232592    89.181209    81.486324    2003.6107  0.061033062  0.063920145  0.071255156   0.19620836  0.040590588  0.041706857   0.05167548   0.13397293 
  620000   -1790522.4    15079.708   -2954.8519    77.232592    89.181209    81.486324    2001.9511  0.060692995  0.061851966  0.071286962   0.19383192  0.039926716  0.040894529  0.053076958    0.1338982 
  621000   -1790426.1    15047.421   -2514.1846    77.232592    89.181209    81.486324    1997.6648  0.061139563  0.063009854  0.072372079    0.1965215  0.040934425  0.041062265  0.053212205   0.13520889 
  622000   -1790501.3    15050.967   -3048.9774    77.232592    89.181209    81.486324    1998.1355  0.061208198  0.061802507  0.072372341   0.19538305  0.040279118  0.040170761  0.053610089   0.13405997 
  623000   -1790359.5    15033.879   -2630.2062    77.232592    89.181209    81.486324    1995.8669  0.060818121  0.064588567  0.072525899   0.19793259  0.041353577  0.041606819  0.053239583   0.13619998 
  624000   -1790480.7     14992.31   -2993.5498    77.232592    89.181209    81.486324    1990.3484  0.061489898  0.061608448  0.072347017   0.19544536   0.04125309  0.039466588  0.053185756   0.13390543 
  625000   -1790546.6    15112.014   -2952.2397    77.232592    89.181209    81.486324      2006.24  0.060433513  0.062174357  0.072416837   0.19502471  0.041043083  0.040211349  0.052938732   0.13419316 
  626000     -1790427    15013.259   -2375.8672    77.232592    89.181209    81.486324    1993.1295  0.061661992  0.063615809  0.070855656   0.19613346  0.041757881  0.041505711  0.052266841   0.13553043 
  627000   -1790374.9    15102.195   -2024.4685    77.232592    89.181209    81.486324    2004.9364  0.061337159  0.064264882  0.072166978   0.19776902  0.040999618  0.041056302  0.052999891   0.13505581 
  628000   -1790473.4    15054.235   -2479.2031    77.232592    89.181209    81.486324    1998.5694  0.060580186  0.061831269  0.071565606   0.19397706  0.041367134  0.039882161   0.05142909   0.13267838 
  629000   -1790513.6    15077.198   -3190.8155    77.232592    89.181209    81.486324    2001.6178  0.061539407  0.064048829   0.07288238   0.19847062  0.040776636  0.042207211  0.053219461   0.13620331 
  630000   -1790517.1    14938.897   -2551.5118    77.232592    89.181209    81.486324    1983.2574  0.062221244  0.063585827  0.071896149   0.19770322  0.041668488  0.041712292  0.052903332   0.13628411 
  631000   -1790478.5    15113.882   -2164.6824    77.232592    89.181209    81.486324    2006.4879   0.06166223  0.063062001  0.073220576   0.19794481  0.041039836  0.039956216  0.053791887   0.13478794 
  632000   -1790537.3    15171.132    -2830.966    77.232592    89.181209    81.486324    2014.0883  0.060745077  0.065965013  0.073166221   0.19987631  0.040196485  0.043279069  0.053409304   0.13688486 
  633000     -1790475    15066.791   -2584.8259    77.232592    89.181209    81.486324    2000.2363  0.061808195  0.062125637  0.072241405   0.19617524  0.041872689  0.040814154   0.05254223   0.13522907 
  634000   -1790529.9    15073.448   -3325.0436    77.232592    89.181209    81.486324      2001.12  0.062015391  0.063237192  0.071470369   0.19672295  0.042446045  0.041415543  0.053884911    0.1377465 
  635000     -1790486    15213.712   -2244.0427    77.232592    89.181209    81.486324    2019.7412  0.061102111  0.062691074  0.072152446   0.19594563   0.04096598   0.04204362   0.05263283   0.13564243 
  636000   -1790478.7      15156.1    -2579.666    77.232592    89.181209    81.486324    2012.0928  0.061335367  0.062271496  0.072019724   0.19562659  0.041482525  0.040502513  0.053154166    0.1351392 
  637000   -1790491.6    15046.548   -2370.9297    77.232592    89.181209    81.486324    1997.5488  0.060683403  0.063947189   0.07205413   0.19668472  0.040324245  0.042276398  0.052497436   0.13509808 
  638000   -1790512.3     15081.89   -2210.9408    77.232592    89.181209    81.486324    2002.2408  0.061124808  0.062214778  0.074034595   0.19737418  0.041253415  0.040986255  0.054537833    0.1367775 
  639000   -1790557.6    15143.438   -2863.2328    77.232592    89.181209    81.486324    2010.4117  0.059769485  0.065617305  0.071674285   0.19706108  0.040074901  0.043678794   0.05274094   0.13649464 
  640000   -1790419.4    15006.286   -2303.1114    77.232592    89.181209    81.486324    1992.2037  0.061358337  0.062550819  0.072964326   0.19687348  0.041282828  0.040151387  0.053631254   0.13506547 
  641000   -1790449.4    15126.349   -2695.8539    77.232592    89.181209    81.486324     2008.143   0.06001008  0.063254805  0.073975595   0.19724048  0.041326355  0.041677603  0.054652693   0.13765665 
  642000   -1790550.6    15096.556   -2650.4915    77.232592    89.181209    81.486324    2004.1877  0.061201677  0.063819509  0.071989527   0.19701071  0.041214875  0.042079172  0.051766981   0.13506103 
  643000     -1790426    15086.765   -1757.1423    77.232592    89.181209    81.486324    2002.8879  0.060420875  0.062933947  0.074338789   0.19769361  0.040986923  0.040603334  0.054017948    0.1356082 
  644000   -1790596.6    15027.329   -2868.8486    77.232592    89.181209    81.486324    1994.9974  0.062208887  0.064348438  0.072843986   0.19940131  0.041636698  0.042141201   0.05256981   0.13634771 
  645000   -1790454.1    15068.309   -2444.9237    77.232592    89.181209    81.486324    2000.4378  0.060990878   0.06433168   0.07341739   0.19873995  0.041663311  0.041557392  0.053284152   0.13650486 
  646000     -1790531    15055.323   -2909.3331    77.232592    89.181209    81.486324    1998.7139   0.06075696  0.064418589  0.070953466   0.19612902  0.040876458  0.041983118  0.052546299   0.13540588 
  647000   -1790497.4    15084.854   -2644.8219    77.232592    89.181209    81.486324    2002.6343  0.061522179   0.06351332  0.073327768   0.19836327  0.040806671  0.040985734  0.053442619   0.13523502 
  648000   -1790547.9    15044.854   -2474.1964    77.232592    89.181209    81.486324    1997.3239  0.062301103  0.064762224  0.071366079   0.19842941  0.041534225  0.042389785  0.052655699   0.13657971 
  649000   -1790434.1    14987.003   -3201.7803    77.232592    89.181209    81.486324    1989.6437  0.062086345  0.063419657   0.07264512   0.19815112    0.0417904  0.041025379  0.052842357   0.13565814 
  650000   -1790513.8    14993.939    -2073.049    77.232592    89.181209    81.486324    1990.5646  0.062164019  0.062813905  0.073279976    0.1982579  0.041968561  0.041056811  0.053322457   0.13634783 
  651000   -1790459.4    15087.695   -2924.4354    77.232592    89.181209    81.486324    2003.0114  0.063233685  0.063684203  0.072149894   0.19906778  0.042452412  0.042381334  0.052511794   0.13734554 
  652000   -1790443.7     15072.96   -1591.9183    77.232592    89.181209    81.486324    2001.0552   0.06306023  0.064431075   0.07336352   0.20085483  0.042240617  0.042817936  0.053961914   0.13902047 
  653000   -1790524.2    15143.127   -2749.7001    77.232592    89.181209    81.486324    2010.3705  0.062513315  0.064231396  0.071432862   0.19817757  0.041396119  0.042833878  0.051392152   0.13562215 
  654000     -1790487    15036.277   -2797.2995    77.232592    89.181209    81.486324    1996.1853  0.062539959  0.062809205  0.074709051   0.20005821  0.041723581   0.04094772  0.054313295    0.1369846 
  655000   -1790636.7    14946.512   -3627.6004    77.232592    89.181209    81.486324    1984.2682  0.062298334  0.064790839  0.072500395   0.19958957  0.041818616  0.043404576  0.052866264   0.13808946 
  656000   -1790507.2    15021.945   -3107.4507    77.232592    89.181209    81.486324    1994.2826  0.061997128    0.0638931  0.073023097   0.19891333  0.041444493  0.041370014  0.053014412   0.13582892 
  657000   -1790522.4     15077.49   -2976.3061    77.232592    89.181209    81.486324    2001.6566   0.06270672  0.064060648  0.074250438   0.20101781  0.042315121  0.041837757  0.054713417   0.13886629 
  658000   -1790560.6    14991.253   -3303.4971    77.232592    89.181209    81.486324     1990.208  0.062966071  0.065525701  0.072231176   0.20072295  0.042022292  0.042629425  0.052242547   0.13689426 
  659000   -1790457.8    15074.156    -2484.182    77.232592    89.181209    81.486324     2001.214  0.062914029  0.062901389  0.072887564   0.19870298  0.041814404  0.040125641  0.053114347   0.13505439 
  660000     -1790547    15060.315   -2904.1275    77.232592    89.181209    81.486324    1999.3766  0.061941093  0.062795658  0.073868942   0.19860569  0.041457966  0.041395042  0.053768084   0.13662109 
  661000   -1790548.3    15114.584   -2564.9773    77.232592    89.181209    81.486324    2006.5811   0.06229127  0.063548735  0.072763746   0.19860375  0.041300998  0.040885048  0.053518371   0.13570442 
  662000   -1790536.1    15078.464    -2381.376    77.232592    89.181209    81.486324    2001.7859  0.060910352  0.064022722  0.073772197   0.19870527  0.041446242  0.041917068  0.052272255   0.13563556 
  663000   -1790474.8    15060.144   -3063.7269    77.232592    89.181209    81.486324    1999.3539  0.061360337  0.062818777  0.073369054   0.19754817  0.041241977  0.040292235  0.052717767   0.13425198 
  664000   -1790486.6    15101.163   -2459.0958    77.232592    89.181209    81.486324    2004.7994  0.062579357  0.064116211  0.072754905   0.19945047  0.041672179  0.040564886   0.05230797   0.13454504 
  665000   -1790475.6      15043.9   -1987.6761    77.232592    89.181209    81.486324    1997.1973  0.062207847  0.064891657  0.074318886   0.20141839  0.041754748  0.041740917  0.053687164   0.13718283 
  666000   -1790566.4    14995.744   -2892.3314    77.232592    89.181209    81.486324    1990.8041  0.062714253  0.064199813  0.074245937      0.20116   0.04282212  0.041199838  0.053865534   0.13788749 
  667000   -1790515.4    15163.681   -2304.8342    77.232592    89.181209    81.486324    2013.0992  0.061268871  0.063890205  0.072662906   0.19782198  0.041933128  0.041107519  0.052850907   0.13589156 
  668000   -1790493.9    15087.237   -2606.0934    77.232592    89.181209    81.486324    2002.9506  0.061894319   0.06516449  0.073211447   0.20027026  0.041613752  0.042065408  0.053160554   0.13683971 
  669000   -1790629.4    15104.605   -3428.2304    77.232592    89.181209    81.486324    2005.2564  0.062431064  0.063410818  0.073122033   0.19896391  0.041799501  0.040194067  0.052811606   0.13480517 
  670000   -1790556.4    15116.181    -2783.822    77.232592    89.181209    81.486324    2006.7932     0.062166  0.064361848  0.074625442   0.20115329  0.041380646   0.04152389  0.053281865    0.1361864 
  671000   -1790587.4    15077.826   -3064.8757    77.232592    89.181209    81.486324    2001.7013  0.061944969  0.064044611  0.073386317    0.1993759  0.041326299   0.04132197  0.051904609   0.13455288 
  672000     -1790479    15131.032   -2638.6971    77.232592    89.181209    81.486324    2008.7647  0.063118481   0.06413531  0.075388625   0.20264242  0.042640547  0.041852385  0.055094046   0.13958698 
  673000   -1790484.8    15129.382   -2556.1378    77.232592    89.181209    81.486324    2008.5458  0.063460164  0.064039231  0.073731315   0.20123071  0.042927514  0.041801497  0.054154931   0.13888394 
  674000   -1790397.8    15071.639   -2014.2768    77.232592    89.181209    81.486324    2000.8799   0.06222041  0.064694587  0.073112409   0.20002741  0.042677827  0.042477938  0.053398418   0.13855418 
  675000   -1790524.3    15088.735   -2460.5283    77.232592    89.181209    81.486324    2003.1495  0.062731175  0.063781248  0.074195282   0.20070771  0.041644916  0.042287797  0.053958685    0.1378914 
  676000   -1790416.1    15019.226   -2736.6767    77.232592    89.181209    81.486324    1993.9216  0.062108613  0.063959916  0.074222185   0.20029071  0.041177956  0.042640332  0.053063715     0.136882 
  677000   -1790545.7    15128.978    -2844.287    77.232592    89.181209    81.486324    2008.4921  0.061839624  0.064175808  0.073883321   0.19989875  0.041722926  0.042204079  0.054391941   0.13831895 
  678000   -1790458.3    15056.274   -2299.9094    77.232592    89.181209    81.486324    1998.8401   0.06222533  0.064066789   0.07428442   0.20057654  0.041519578  0.041543763  0.054390042   0.13745338 
  679000     -1790525    15165.743    -2284.224    77.232592    89.181209    81.486324    2013.3729  0.062001245  0.063805973  0.073092577    0.1988998  0.041327427  0.042405351  0.052743304   0.13647608 
  680000     -1790421    15074.743   -2182.2025    77.232592    89.181209    81.486324    2001.2919  0.062242513  0.063144263  0.073769179   0.19915596  0.042240714  0.040322914  0.054331533   0.13689516 
  681000   -1790483.2    15059.437   -2290.0148    77.232592    89.181209    81.486324    1999.2599  0.063392373  0.065451663  0.074501527   0.20334556  0.042556803  0.042166788  0.053059737   0.13778333 
  682000   -1790556.1    15092.919   -2928.9058    77.232592    89.181209    81.486324     2003.705  0.062754704  0.064464935  0.074792365     0.202012  0.042245474  0.042398729  0.054597971   0.13924217 
  683000   -1790403.4    15042.039   -2197.2643    77.232592    89.181209    81.486324    1996.9502  0.062976408  0.064038011   0.07316616   0.20018058  0.041951442  0.041228378  0.052608851   0.13578867 
  684000   -1790584.8     15091.67    -3228.948    77.232592    89.181209    81.486324    2003.5391  0.061611342  0.066541272  0.073789765   0.20194238  0.041534072   0.04283042  0.053608341   0.13797283 
  685000   -1790399.6    15114.148   -2313.8214    77.232592    89.181209    81.486324    2006.5233  0.064146015  0.065448336  0.074080275   0.20367462  0.042434539  0.041382876  0.053484533   0.13730195 
  686000   -1790493.2    15066.386   -2162.8971    77.232592    89.181209    81.486324    2000.1825  0.062262664  0.066220799  0.072661791   0.20114525  0.040743848  0.041459363  0.052086048   0.13428926 
  687000   -1790556.5    15098.734   -2557.6973    77.232592    89.181209    81.486324    2004.4769  0.062982127  0.065543109  0.074542205   0.20306744  0.042113023  0.042485888  0.053895428   0.13849434 
  688000   -1790396.6    15009.048    -2427.993    77.232592    89.181209    81.486324    1992.5704  0.062740252  0.065208963  0.073721656   0.20167087  0.041300066  0.041621868  0.052708205   0.13563014 
  689000   -1790620.7    15108.144   -3284.1672    77.232592    89.181209    81.486324    2005.7262  0.062522248  0.065756326  0.072988251   0.20126682  0.041485937  0.042205328  0.052647284   0.13633855 
  690000   -1790452.6    15064.571   -2179.5258    77.232592    89.181209    81.486324    1999.9416  0.063642726  0.064275488  0.074099293   0.20201751  0.041371935  0.040954931  0.053811602   0.13613847 
  691000     -1790557    15081.887   -3241.9807    77.232592    89.181209    81.486324    2002.2404  0.063150429   0.06582423  0.074069403   0.20304406  0.041901939  0.041340044  0.053231425   0.13647341 
  692000   -1790505.3    15018.834   -2759.0868    77.232592    89.181209    81.486324    1993.8696  0.063301896  0.063076873  0.074250926   0.20062969  0.042138515  0.039847164  0.053188746   0.13517443 
  693000   -1790432.2    15045.206   -2434.4061    77.232592    89.181209    81.486324    1997.3706  0.063512506  0.066002462  0.074909842   0.20442481  0.042037825  0.042129757  0.053577476   0.13774506 
  694000   -1790508.5    15059.787   -2669.1232    77.232592    89.181209    81.486324    1999.3065  0.063072609  0.064382922  0.074003573    0.2014591  0.041741819  0.040793204  0.052362749   0.13489777 
  695000   -1790500.4    15104.234    -2141.428    77.232592    89.181209    81.486324    2005.2071  0.064473564  0.065300605    0.0758913   0.20566547  0.042680352  0.041124469  0.053783855   0.13758868 
  696000   -1790492.7    15069.939   -2953.6861    77.232592    89.181209    81.486324    2000.6541  0.062696717  0.065762821  0.074336193   0.20279573  0.041435188  0.041524194  0.052911901   0.13587128 
  697000   -1790462.8    15043.346   -3027.7667    77.232592    89.181209    81.486324    1997.1237  0.063066789  0.065810669  0.074433397   0.20331086  0.041166571  0.041114221  0.052475815   0.13475661 
  698000   -1790534.9    15161.312   -2461.9522    77.232592    89.181209    81.486324    2012.7847  0.063302204  0.065846556  0.075578755   0.20472752   0.04205983  0.041482869  0.053348255   0.13689095 
  699000     -1790427     15087.17   -2312.4413    77.232592    89.181209    81.486324    2002.9417    0.0633261  0.065808244  0.073427922   0.20256227  0.041828118  0.041475248  0.051958197   0.13526156 
  700000   -1790521.4      15077.5   -3358.2168    77.232592    89.181209    81.486324    2001.6579  0.064012057  0.065314125  0.074430001   0.20375618  0.042428298  0.041831485  0.054314158   0.13857394 
  701000   -1790471.3    14984.936   -2445.0992    77.232592    89.181209    81.486324    1989.3693  0.063259406  0.064940746  0.074020526   0.20222068  0.042526189  0.040825078  0.053394246   0.13674551 
  702000   -1790458.5     15063.96   -1960.1384    77.232592    89.181209    81.486324    1999.8605  0.063760269  0.065864174  0.074097212   0.20372166  0.042295968  0.042304952  0.052832605   0.13743353 
  703000   -1790497.8    15001.921   -2276.4911    77.232592    89.181209    81.486324    1991.6243  0.063240982  0.065647651  0.075779005   0.20466764  0.042483231  0.042527758  0.054222567   0.13923356 
  704000     -1790498    15054.939   -2821.1528    77.232592    89.181209    81.486324    1998.6629  0.063348422   0.06577759  0.073991864   0.20311788   0.04188824  0.042019454  0.053387469   0.13729516 
  705000   -1790498.4    15018.064   -2438.9778    77.232592    89.181209    81.486324    1993.7674  0.063060831   0.06644583  0.075086073   0.20459273   0.04080717  0.042377197  0.053168893   0.13635326 
  706000   -1790556.2    15032.969   -2710.6769    77.232592    89.181209    81.486324    1995.7461  0.063744594  0.065243408  0.076951944   0.20593995  0.042027177  0.041787442  0.055044182    0.1388588 
  707000     -1790528    15076.075   -2231.4823    77.232592    89.181209    81.486324    2001.4688  0.063459855  0.066703277  0.074867553   0.20503068  0.041054714  0.043019603  0.053387749   0.13746207 
  708000   -1790479.3    15119.123   -2135.9561    77.232592    89.181209    81.486324    2007.1837  0.064658937  0.065319634  0.076815638   0.20679421  0.043774426  0.042029012   0.05463121   0.14043465 
  709000   -1790450.8    15062.364   -2370.3793    77.232592    89.181209    81.486324    1999.6486  0.063959925  0.064528023  0.076598652    0.2050866  0.041572617  0.042081882  0.054494572   0.13814907 
  710000   -1790517.9    15020.143   -2799.0013    77.232592    89.181209    81.486324    1994.0434  0.063374234  0.065116459  0.073913636   0.20240433  0.041271845   0.04219651  0.052324646     0.135793 
  711000   -1790492.4    15064.061   -2601.1092    77.232592    89.181209    81.486324    1999.8739  0.063415456  0.065182224  0.075002763   0.20360044  0.042261334  0.041690215   0.05313895    0.1370905 
  712000   -1790592.1     15043.39   -2951.0923    77.232592    89.181209    81.486324    1997.1295   0.06347944  0.065259185  0.074366785   0.20310541  0.041649953  0.041387696  0.053619358   0.13665701 
  713000   -1790551.6    15084.436   -3465.0792    77.232592    89.181209    81.486324    2002.5788   0.06384378  0.064893735  0.075543234   0.20428075  0.042178343  0.042316994  0.054399584   0.13889492 
  714000   -1790509.2    15088.983   -3234.1656    77.232592    89.181209    81.486324    2003.1824  0.062900174  0.065322502  0.074855417   0.20307809  0.041379301  0.041289257  0.052718958   0.13538752 
  715000   -1790425.8    15045.412   -2136.8726    77.232592    89.181209    81.486324    1997.3981  0.063726188  0.065896928  0.075188625   0.20481174  0.042003418   0.04212004  0.053248583   0.13737204 
  716000   -1790430.4    15067.017   -2490.7611    77.232592    89.181209    81.486324    2000.2662  0.062891019   0.06584166  0.075568667   0.20430135  0.041353573  0.042142997  0.053484297   0.13698087 
  717000   -1790450.1    15014.608   -2645.8493    77.232592    89.181209    81.486324    1993.3085  0.063180378  0.065604112  0.075500971   0.20428546  0.041319444  0.041527464  0.052891827   0.13573874 
  718000   -1790465.8    15058.294   -2645.3566    77.232592    89.181209    81.486324    1999.1083  0.063115021  0.064964986  0.075393055   0.20347306  0.041869672  0.041122076  0.054209846   0.13720159 
  719000   -1790533.5    15048.471   -3220.8817    77.232592    89.181209    81.486324    1997.8041  0.063430394  0.065974613  0.074844268   0.20424927  0.042116239  0.042715431  0.052733976   0.13756565 
  720000   -1790369.4    15060.152   -2654.4365    77.232592    89.181209    81.486324    1999.3549  0.064247191  0.067400058  0.077008672   0.20865592  0.041799927  0.041701304   0.05416935   0.13767058 
  721000   -1790446.6    15047.281   -2776.2794    77.232592    89.181209    81.486324    1997.6462  0.064308096  0.066558772  0.076466904   0.20733377  0.041966294  0.042074944  0.053365699   0.13740694 
  722000   -1790493.5    14954.327   -2926.4561    77.232592    89.181209    81.486324    1985.3058  0.064103754  0.067134747  0.073959664   0.20519816  0.041192093  0.042055381  0.052741565   0.13598904 
  723000   -1790419.2    15169.615   -2499.1297    77.232592    89.181209    81.486324     2013.887  0.063334329  0.067067435  0.075598282   0.20600005  0.042376377  0.042152748  0.054122354   0.13865148 
  724000   -1790584.1    15082.693    -3112.037    77.232592    89.181209    81.486324    2002.3473  0.063923258   0.06689709  0.074809331   0.20562968  0.041482503  0.042459255  0.051510442    0.1354522 
  725000   -1790458.7    14991.071   -2784.3966    77.232592    89.181209    81.486324    1990.1838  0.064186643  0.066526184    0.0763724   0.20708523  0.042410074  0.041689716  0.054540445   0.13864023 
  726000   -1790468.1    15113.887   -2523.2875    77.232592    89.181209    81.486324    2006.4887  0.063512668  0.067710237  0.074330736   0.20555364  0.040008808  0.042205045   0.05267395    0.1348878 
  727000   -1790436.1    14945.222   -2178.6773    77.232592    89.181209    81.486324     1984.097   0.06446925  0.066534662  0.074868288    0.2058722   0.04208044  0.041570126  0.052858894   0.13650946 
  728000   -1790492.6    15125.755   -2980.9423    77.232592    89.181209    81.486324    2008.0642  0.064580685  0.067328359   0.07679383   0.20870287  0.041729584  0.042527687  0.053571881   0.13782915 
  729000   -1790386.5    14977.013   -2279.7757    77.232592    89.181209    81.486324    1988.3175  0.064040967  0.067624987  0.074528079   0.20619403  0.042266876  0.042479565  0.051649135   0.13639558 
  730000   -1790466.3    15117.093   -2768.8076    77.232592    89.181209    81.486324    2006.9143  0.064755247  0.067214929  0.075891096   0.20786127  0.041584935  0.041213513  0.053029147   0.13582759 
  731000   -1790535.5    15096.049   -2993.8906    77.232592    89.181209    81.486324    2004.1204   0.06464919  0.067946196  0.076023306   0.20861869  0.042530292  0.042795265  0.053816612   0.13914217 
  732000   -1790564.6    15113.654   -3407.2389    77.232592    89.181209    81.486324    2006.4576   0.06517133  0.066261416  0.075467843   0.20690059  0.042010293  0.040587337  0.053288975    0.1358866 
  733000   -1790632.3    14999.066   -2878.4278    77.232592    89.181209    81.486324    1991.2452  0.064627914  0.067083192  0.077425372   0.20913648  0.041828891  0.041873083  0.055220552   0.13892253 
  734000   -1790395.4    15120.696   -1797.4335    77.232592    89.181209    81.486324    2007.3926  0.063865609  0.066784103  0.075005673   0.20565539  0.041502313  0.041346347  0.052667866   0.13551653 
  735000   -1790517.8    15076.086   -2125.2559    77.232592    89.181209    81.486324    2001.4702   0.06445683  0.067460762  0.076048459   0.20796605  0.041455183  0.041548266  0.054200308   0.13720376 
  736000   -1790583.4    15144.187   -3218.1886    77.232592    89.181209    81.486324    2010.5112  0.065834125  0.069069636  0.074689781   0.20959354  0.043008213  0.042067098  0.052695448   0.13777076 
  737000   -1790480.7    15068.227   -3350.0616    77.232592    89.181209    81.486324    2000.4269  0.064428531  0.067666572  0.076564705   0.20865981  0.042054603  0.041236602  0.053869708   0.13716091 
  738000   -1790494.8    15051.507   -2863.9361    77.232592    89.181209    81.486324    1998.2072  0.065590015  0.067131249  0.078193577   0.21091484  0.043774079  0.041553691  0.055222185   0.14054996 
  739000   -1790536.6    15079.794   -2773.8176    77.232592    89.181209    81.486324    2001.9625  0.064445444  0.068481759  0.075613621   0.20854082  0.042166796  0.042910359  0.052696084   0.13777324 
  740000   -1790518.3    14968.692   -2854.4377    77.232592    89.181209    81.486324    1987.2128   0.06539572  0.067915504  0.075559146   0.20887037  0.043329109  0.042309059  0.052673687   0.13831185 
  741000   -1790548.9    14983.934   -2633.9672    77.232592    89.181209    81.486324    1989.2363  0.065441247  0.068326691  0.075701035   0.20946897  0.042508005  0.042737833  0.053501529   0.13874737 
  742000   -1790430.2    15081.263   -1915.1774    77.232592    89.181209    81.486324    2002.1575  0.065406545  0.068492275  0.076378293   0.21027711  0.042176223  0.042381745  0.054193727    0.1387517 
  743000   -1790529.5    15041.734    -2435.701    77.232592    89.181209    81.486324    1996.9097  0.065240929  0.069018664  0.075581275   0.20984087  0.042834327  0.042388691  0.052253671   0.13747669 
  744000   -1790493.2    15053.649   -2887.8646    77.232592    89.181209    81.486324    1998.4915  0.065808601  0.068069403  0.075861145   0.20973915  0.042837834  0.041536634  0.053619313   0.13799378 
  745000   -1790530.1    15118.365   -3130.7916    77.232592    89.181209    81.486324    2007.0832  0.065879421  0.068373497  0.075554612   0.20980753  0.042371903  0.041861041   0.05325401   0.13748695 
  746000   -1790497.1    15037.356   -2501.5845    77.232592    89.181209    81.486324    1996.3285  0.065196969  0.068230208  0.076540263   0.20996744  0.042133258  0.042840967  0.055066812   0.14004104 
  747000   -1790437.2    15114.906   -2703.3278    77.232592    89.181209    81.486324    2006.6239  0.065456344  0.068314996  0.075794497   0.20956584  0.042596903  0.042411326  0.052674806   0.13768303 
  748000   -1790466.7    15206.896   -2176.8698    77.232592    89.181209    81.486324    2018.8363  0.065307065   0.06825543  0.076379616   0.20994211    0.0422236  0.042500703  0.054312605   0.13903691 
  749000   -1790556.2      15101.2   -2625.1256    77.232592    89.181209    81.486324    2004.8043  0.065400354  0.067183512  0.074900999   0.20748487  0.042206119  0.041739783  0.053594813   0.13754071 
  750000   -1790502.4    15111.409   -2779.5697    77.232592    89.181209    81.486324    2006.1596  0.065705099  0.068523084  0.075065952   0.20929413  0.042440491  0.043088706  0.052792914   0.13832211 
  751000   -1790523.3    15124.814   -2880.9501    77.232592    89.181209    81.486324    2007.9393    0.0659197   0.06821061  0.076082206   0.21021252  0.042409669  0.043360672  0.053483327   0.13925367 
  752000   -1790471.1     15111.76   -2605.6104    77.232592    89.181209    81.486324    2006.2062  0.065307539  0.068050861  0.075406675   0.20876507  0.042097765  0.041619828  0.052491435   0.13620903 
  753000   -1790428.7    15070.822   -2297.5515    77.232592    89.181209    81.486324    2000.7714   0.06606068  0.068912567  0.076204166   0.21117741  0.042321672  0.042816159  0.053627645   0.13876548 
  754000   -1790522.4    15085.486   -2482.2576    77.232592    89.181209    81.486324    2002.7182  0.064811854  0.066947214  0.075084895   0.20684396  0.041720551   0.04112211  0.053255884   0.13609854 
  755000   -1790444.1    15107.451   -2681.3548    77.232592    89.181209    81.486324    2005.6342  0.064841605  0.067765063  0.077943322   0.21054999  0.041638701  0.041257573  0.054068172   0.13696445 
  756000   -1790531.3    15042.295   -2800.5586    77.232592    89.181209    81.486324    1996.9843  0.065058677  0.068195663  0.076340949   0.20959529  0.041438869  0.042760565  0.053596584   0.13779602 
  757000   -1790448.7    15101.633   -2925.3496    77.232592    89.181209    81.486324    2004.8618  0.065997749  0.068178504  0.076261518   0.21043777  0.042245267  0.042339245  0.053989754   0.13857427 
  758000   -1790553.6    15214.879   -3114.5363    77.232592    89.181209    81.486324    2019.8961  0.066143519  0.068405027  0.075562243   0.21011079  0.042375301  0.042027826  0.053760362   0.13816349 
  759000   -1790482.4    15003.731   -2517.7238    77.232592    89.181209    81.486324    1991.8645  0.065022505  0.068820458  0.075710881   0.20955384  0.041719787  0.043220664  0.053583481   0.13852393 
  760000   -1790466.9    15128.504   -2535.8038    77.232592    89.181209    81.486324    2008.4291  0.065604657  0.068448197  0.075690956   0.20974381  0.043029123  0.041569543  0.053454541   0.13805321 
  761000   -1790473.7    15085.484   -2686.6825    77.232592    89.181209    81.486324    2002.7178  0.064480517  0.068019979  0.075457703    0.2079582  0.041920953  0.042145975  0.053469094   0.13753602 
  762000   -1790497.1    15089.237   -2682.6233    77.232592    89.181209    81.486324    2003.2162  0.065086528  0.068091933  0.075396199   0.20857466  0.042831255  0.042037803  0.052431531   0.13730059 
  763000   -1790515.4    15117.611   -2279.0259    77.232592    89.181209    81.486324     2006.983  0.065904726  0.068720412  0.075346651   0.20997179  0.043744825  0.042967232  0.052746719   0.13945878 
  764000     -1790627    15149.624   -3427.0734    77.232592    89.181209    81.486324     2011.233  0.065408868   0.06846373  0.075798409   0.20967101  0.042880624  0.042621636   0.05296012   0.13846238 
  765000   -1790559.2    15181.671   -2244.5563    77.232592    89.181209    81.486324    2015.4875  0.064976869  0.069241147  0.074376771   0.20859479  0.042581283  0.042970099  0.054061169   0.13961255 
  766000   -1790500.2    14989.388   -3214.2452    77.232592    89.181209    81.486324    1989.9603    0.0637183  0.067861438  0.076025499   0.20760524  0.042290583   0.04256879  0.055257521   0.14011689 
  767000   -1790549.1    15087.921   -2748.4265    77.232592    89.181209    81.486324    2003.0415  0.065219166  0.068319215  0.075883344   0.20942173  0.042994074  0.041867492  0.053941811   0.13880338 
  768000   -1790442.4    15108.989   -1986.9114    77.232592    89.181209    81.486324    2005.8384  0.065801847  0.069845484  0.076898952   0.21254628   0.04305329  0.043918128  0.054254234   0.14122565 
  769000   -1790446.7    15039.333    -2590.263    77.232592    89.181209    81.486324     1996.591  0.066448812  0.067272734  0.075487939   0.20920949  0.042773177  0.042238436   0.05369926   0.13871087 
  770000   -1790588.1    15071.563   -2743.5026    77.232592    89.181209    81.486324    2000.8698  0.065645861  0.069255115   0.07759279   0.21249377  0.042923571  0.044022991  0.055445985   0.14239255 
  771000     -1790455    14995.359   -2742.1904    77.232592    89.181209    81.486324    1990.7531  0.064862915  0.068643791  0.075344297     0.208851   0.04233316  0.042081919  0.053836222    0.1382513 
  772000   -1790561.2    14950.382   -3692.3528    77.232592    89.181209    81.486324     1984.782  0.066321152  0.067735463  0.075080964   0.20913758   0.04329932  0.041745661  0.054113045   0.13915803 
  773000   -1790500.1     15114.12   -2112.1528    77.232592    89.181209    81.486324    2006.5195  0.065709314  0.067699785   0.07526469   0.20867379  0.042988086  0.042499005  0.054777283   0.14026437 
  774000   -1790494.1    15081.138   -3085.8609    77.232592    89.181209    81.486324    2002.1409  0.065290716  0.068654474  0.075553075   0.20949827  0.042905461   0.04410946  0.053433212   0.14044813 
  775000   -1790488.6    15081.154   -2790.5268    77.232592    89.181209    81.486324     2002.143  0.065932001  0.068834362  0.076896642   0.21166301  0.043333443  0.043962916  0.054479758   0.14177612 
  776000   -1790487.8     15064.21   -2033.2433    77.232592    89.181209    81.486324    1999.8936  0.064322897  0.067460956  0.075027065   0.20681092  0.042767575  0.042704791  0.053740288   0.13921265 
  777000   -1790461.1    15028.497   -2477.5881    77.232592    89.181209    81.486324    1995.1524   0.06599343  0.069058065   0.07585137   0.21090287  0.043507483  0.043494245  0.054410738   0.14141247 
  778000   -1790424.8    14990.853   -2353.0271    77.232592    89.181209    81.486324    1990.1549  0.066456041  0.068664352   0.07605339   0.21117378  0.042678629  0.043398678  0.054098144   0.14017545 
  779000   -1790543.1    15099.264   -3017.3229    77.232592    89.181209    81.486324    2004.5473  0.066527694  0.067301772  0.076436428   0.21026589  0.043547131  0.041426187  0.053811361   0.13878468 
  780000   -1790551.4    15042.013    -2552.437    77.232592    89.181209    81.486324    1996.9468  0.065677839  0.068680616  0.076888324   0.21124678  0.041995791  0.042573773    0.0544106   0.13898016 
  781000   -1790444.9    14960.816   -2289.3435    77.232592    89.181209    81.486324    1986.1672  0.066676588  0.069292503  0.075050266   0.21101936  0.043629018  0.043187338  0.053750856   0.14056721 
  782000   -1790529.3     14953.82    -3326.937    77.232592    89.181209    81.486324    1985.2385  0.065510913  0.068594144   0.07487094     0.208976  0.042240038  0.042852128  0.053013272   0.13810544 
  783000   -1790575.3    15029.791   -3017.1053    77.232592    89.181209    81.486324    1995.3243  0.065657135  0.067807935  0.077113517   0.21057859  0.042223548  0.042025955  0.054501322   0.13875082 
  784000   -1790470.6    15067.253   -2699.4144    77.232592    89.181209    81.486324    2000.2976  0.064369734  0.070195413  0.075889021   0.21045417  0.041684402  0.043024779  0.054532775   0.13924196 
  785000   -1790437.5    15132.186    -2062.739    77.232592    89.181209    81.486324     2008.918  0.067291584  0.068856307  0.077079715   0.21322761  0.044583172  0.043179626    0.0553244    0.1430872 
  786000   -1790484.4    14969.445   -2597.4961    77.232592    89.181209    81.486324    1987.3128   0.06579889  0.068025918  0.075127797   0.20895261  0.043338223  0.042166286  0.053384543   0.13888905 
  787000   -1790482.7    15067.853   -2910.9249    77.232592    89.181209    81.486324    2000.3773  0.064893154  0.069328797  0.076472933   0.21069488  0.042984329  0.043290492  0.054827441   0.14110226 
  788000   -1790503.6    15066.554   -3285.7625    77.232592    89.181209    81.486324    2000.2048  0.066548477  0.067560759  0.076813202   0.21092244  0.043188709  0.041421949   0.05391349   0.13852415 
  789000   -1790508.1    15132.085   -2574.0586    77.232592    89.181209    81.486324    2008.9046     0.065434  0.069436774  0.074949145   0.20981992  0.043339046  0.042796969  0.052961274   0.13909729 
  790000   -1790582.9    15049.264   -3443.8461    77.232592    89.181209    81.486324    1997.9094  0.066693153  0.068289892  0.077055195   0.21203824  0.043435652  0.042738124  0.054660955   0.14083473 
  791000   -1790506.1    15015.377   -2847.8484    77.232592    89.181209    81.486324    1993.4107  0.065942089  0.069997125  0.076420832   0.21236005  0.043758808  0.044183556  0.054493555   0.14243592 
  792000   -1790519.8     15053.08   -2604.4181    77.232592    89.181209    81.486324     1998.416  0.065619647  0.068149449  0.076149943   0.20991904  0.042930186  0.042752826   0.05351778   0.13920079 
  793000     -1790521    14997.377   -2940.1647    77.232592    89.181209    81.486324     1991.021  0.065310411  0.069278783  0.076339511   0.21092871  0.042871329   0.04380579    0.0544475   0.14112462 
  794000   -1790404.3    15086.868   -2140.3149    77.232592    89.181209    81.486324    2002.9017  0.066401477  0.069111956  0.074526621   0.21004005  0.043776125  0.043746184  0.053554791    0.1410771 
  795000   -1790520.1    15051.935    -2846.018    77.232592    89.181209    81.486324     1998.264   0.06591821  0.068803113  0.075378303   0.21009963  0.042609429  0.042266965  0.053068378   0.13794477 
  796000   -1790598.7     15073.76   -3395.2861    77.232592    89.181209    81.486324    2001.1615  0.065996114  0.068580791  0.076714666   0.21129157  0.043382055  0.042814578  0.054389795   0.14058643 
  797000   -1790429.6    15088.242   -2390.0306    77.232592    89.181209    81.486324     2003.084  0.065504957  0.067920545  0.076570694   0.20999619  0.042872532  0.043077123  0.055692181   0.14164184 
  798000   -1790548.1    15004.285   -2947.1542    77.232592    89.181209    81.486324     1991.938  0.066016031  0.069226776  0.077529513   0.21277232  0.044131144  0.043033484  0.055119738   0.14228437 
  799000   -1790554.8    15067.281   -2651.3924    77.232592    89.181209    81.486324    2000.3013  0.066224252  0.068694625  0.075361938   0.21028081  0.042978164  0.043261027  0.053926382   0.14016557 
  800000   -1790606.5    15002.853   -3272.6435    77.232592    89.181209    81.486324     1991.748  0.065075059  0.068259572  0.076010859   0.20934549  0.043557364  0.042987425  0.053919798   0.14046459 
  801000     -1790515    14999.904   -2634.5285    77.232592    89.181209    81.486324    1991.3565  0.064946295  0.069931989  0.075807519    0.2106858   0.04222406  0.044124062  0.053814872   0.14016299 
  802000   -1790445.5    15046.202     -2133.53    77.232592    89.181209    81.486324    1997.5029  0.065291146  0.068729707    0.0750309   0.20905175  0.043471396   0.04255729  0.053542669   0.13957135 
  803000     -1790553     15104.04    -2904.213    77.232592    89.181209    81.486324    2005.1813  0.066004959  0.069610126   0.07705622    0.2126713   0.04253039  0.042857133  0.054810811   0.14019834 
  804000     -1790544    15078.302   -3199.7818    77.232592    89.181209    81.486324    2001.7644  0.065154022  0.069029456  0.076344489   0.21052797  0.042777274  0.042251138  0.053677701   0.13870611 
  805000   -1790454.2    15036.461   -2324.6016    77.232592    89.181209    81.486324    1996.2096  0.065127591  0.069333188  0.077473455   0.21193423  0.042449793  0.042969557   0.05462085    0.1400402 
  806000   -1790535.4     15012.89   -2914.0961    77.232592    89.181209    81.486324    1993.0805  0.065563482  0.068724322  0.076459471   0.21074727  0.043749257  0.042416338  0.054267681   0.14043328 
  807000   -1790539.1    15050.654   -3610.1788    77.232592    89.181209    81.486324    1998.0939  0.065903335   0.06917519  0.076171737   0.21125026  0.043200155  0.041763007  0.053963717   0.13892688 
  808000   -1790490.9     15115.96   -2746.0623    77.232592    89.181209    81.486324    2006.7639   0.06543358  0.070770884  0.076419581   0.21262405  0.043055951  0.043943544  0.054028092   0.14102759 
  809000   -1790440.2     15146.27   -2134.2829    77.232592    89.181209    81.486324    2010.7877  0.064994754  0.068929248  0.075283323   0.20920732  0.043024199  0.042340666  0.053760058   0.13912492 
  810000   -1790472.6    15021.387   -2849.5319    77.232592    89.181209    81.486324    1994.2085  0.065185014  0.069931448   0.07639613   0.21151259  0.043153768  0.042580792  0.054255228   0.13998979 
  811000   -1790481.1    15090.596   -2445.3017    77.232592    89.181209    81.486324    2003.3965  0.066252216  0.069568175  0.075642989   0.21146338  0.044330699  0.042769518  0.053484819   0.14058504 
  812000   -1790469.5    15032.576   -2685.4827    77.232592    89.181209    81.486324     1995.694  0.065150362  0.068977777  0.078111851   0.21223999  0.042874393  0.041931832  0.055256056   0.14006228 
  813000   -1790670.3    15097.112   -2862.2815    77.232592    89.181209    81.486324    2004.2616  0.064973929  0.069711857  0.076880156   0.21156594  0.043186771  0.042851888  0.053610255   0.13964891 
  814000   -1790517.3    15013.495   -2539.5459    77.232592    89.181209    81.486324    1993.1608   0.06524108  0.069105636  0.076015569   0.21036228  0.042965234  0.042401628  0.054294434    0.1396613 
  815000     -1790519     15006.41   -2740.6506    77.232592    89.181209    81.486324    1992.2202  0.064724875  0.069316646  0.075628119   0.20966964  0.042691786  0.043386696  0.053867911   0.13994639 
  816000   -1790518.3    15147.694   -2708.2428    77.232592    89.181209    81.486324    2010.9768  0.066242343  0.068788524  0.076981199   0.21201207  0.043325456  0.042364934  0.054810738   0.14050113 
  817000   -1790519.4    15005.743   -2608.9429    77.232592    89.181209    81.486324    1992.1317  0.065126072  0.070177938  0.074905602   0.21020961  0.043486514  0.043204885  0.052935929   0.13962733 
  818000   -1790515.3    14991.949   -3072.6792    77.232592    89.181209    81.486324    1990.3003  0.065020216  0.069024917  0.076163393   0.21020853   0.04342198  0.042685357  0.053615259    0.1397226 
  819000   -1790482.7     15011.95   -2963.6403    77.232592    89.181209    81.486324    1992.9557   0.06599084  0.069571268  0.075856525   0.21141863  0.043533886  0.042596252  0.053545285   0.13967542 
  820000   -1790512.1    15054.138   -2746.6465    77.232592    89.181209    81.486324    1998.5565  0.066173619  0.070176259  0.077441115   0.21379099  0.043513455  0.043531555  0.053835805   0.14088082 
  821000   -1790374.6    15092.865   -2220.9301    77.232592    89.181209    81.486324    2003.6978  0.066362761  0.069508198  0.076563271   0.21243423  0.044193133  0.042765024  0.054507433   0.14146559 
  822000   -1790498.9    15021.628   -3154.9707    77.232592    89.181209    81.486324    1994.2406  0.066864543  0.069755481  0.077538286   0.21415831   0.04498389  0.043108057  0.054349502   0.14244145 
  823000     -1790496    15029.075   -3375.4002    77.232592    89.181209    81.486324    1995.2292  0.066271958  0.069216168  0.077518456   0.21300658  0.043940097  0.043918371  0.054480941   0.14233941 
  824000   -1790401.8    15066.494   -2224.1675    77.232592    89.181209    81.486324    2000.1969  0.065496749  0.069117405   0.07729398   0.21190813  0.043390905  0.042074521  0.055593804   0.14105923 
  825000   -1790464.6    15101.096   -2215.1246    77.232592    89.181209    81.486324    2004.7905  0.065503079  0.069411947  0.076629048   0.21154407  0.043060157  0.043263531   0.05436968   0.14069337 
  826000   -1790529.9    15095.319   -2459.1927    77.232592    89.181209    81.486324    2004.0235  0.065949425   0.06820186  0.077513444   0.21166473  0.044080807  0.042722446  0.053762611   0.14056586 
  827000   -1790513.6    15008.896   -3261.3147    77.232592    89.181209    81.486324    1992.5502  0.065698323  0.068799933  0.074732194   0.20923045  0.043735237  0.041783657  0.053110279   0.13862917 
  828000   -1790523.9    15116.639   -2505.5201    77.232592    89.181209    81.486324    2006.8539  0.066470071  0.068014693  0.076187112   0.21067188  0.043866876  0.042029401  0.053686261   0.13958254 
  829000   -1790541.8    15049.545   -2545.6629    77.232592    89.181209    81.486324    1997.9467  0.066361162   0.06939919  0.078022644     0.213783   0.04334302  0.043335288  0.053912768   0.14059108 
  830000   -1790473.4      14994.1   -2554.9174    77.232592    89.181209    81.486324     1990.586  0.065643236  0.067999414   0.07650967   0.21015232  0.043010778  0.042115248  0.054010304   0.13913633 
  831000   -1790513.4    15069.295   -2783.7017    77.232592    89.181209    81.486324    2000.5686  0.066789656  0.068711092  0.077599945   0.21310069  0.044195897  0.042758231  0.054358421   0.14131255 
  832000   -1790446.5    15108.562   -2196.0843    77.232592    89.181209    81.486324    2005.7816  0.066443704  0.069597807  0.078033992    0.2140755  0.044487174  0.042889949  0.054772786   0.14214991 
  833000   -1790434.8    15080.518   -2055.4687    77.232592    89.181209    81.486324    2002.0587  0.066187047  0.069493951  0.076739044   0.21242004  0.043169173  0.042687825  0.054725624   0.14058262 
  834000   -1790428.5    15109.681   -1585.5799    77.232592    89.181209    81.486324    2005.9303  0.066987646   0.06953043  0.077158901   0.21367698  0.044328689  0.043681218  0.054060569   0.14207048 
  835000   -1790533.3    15118.028   -3015.5763    77.232592    89.181209    81.486324    2007.0384  0.067000327  0.068824956  0.075919411   0.21174469  0.044773395  0.042704336  0.054334229   0.14181196 
  836000   -1790602.1    14914.389   -3439.7049    77.232592    89.181209    81.486324    1980.0037  0.066926975  0.069399827  0.076918593   0.21324539  0.044431272  0.043974195  0.053548467   0.14195393 
  837000   -1790540.4    15010.135   -3217.2812    77.232592    89.181209    81.486324    1992.7147  0.065804722  0.068212266  0.078342938   0.21235993  0.043457706  0.041717132  0.054525406   0.13970024 
  838000   -1790574.9    15082.029   -2885.1392    77.232592    89.181209    81.486324    2002.2592  0.065868475  0.069486207   0.07737302    0.2127277  0.043611529  0.044218446  0.053305002   0.14113498 
  839000   -1790525.4    15127.436   -2737.6245    77.232592    89.181209    81.486324    2008.2873   0.06641929  0.068831993  0.077193218    0.2124445  0.043941782  0.042352195  0.054233974   0.14052795 
  840000   -1790515.6    14988.604    -2997.548    77.232592    89.181209    81.486324    1989.8563  0.067064664  0.069021889  0.077161403   0.21324796  0.043815961  0.043230683  0.055617673   0.14266432 
  841000   -1790576.1    15107.673   -2992.7651    77.232592    89.181209    81.486324    2005.6636  0.067080034  0.070259196  0.077723854   0.21506308  0.044112677  0.044008518  0.053235139   0.14135633 
  842000   -1790398.4    15047.984   -2700.2884    77.232592    89.181209    81.486324    1997.7395  0.068153346  0.069383121  0.078255993   0.21579246  0.044597975  0.043409664  0.054562623   0.14257026 
  843000   -1790493.8     15133.25   -2158.0021    77.232592    89.181209    81.486324    2009.0592  0.066772136  0.071389149  0.076899679   0.21506096  0.044065188  0.044573831  0.053592772   0.14223179 
  844000   -1790487.3    15096.154   -2208.3456    77.232592    89.181209    81.486324    2004.1344  0.067067555  0.069233903  0.077585201   0.21388666  0.043503126  0.042384826  0.053857745    0.1397457 
  845000   -1790577.3    15024.247   -3534.8493    77.232592    89.181209    81.486324    1994.5882  0.066102758  0.070136973  0.077707607   0.21394734  0.043503255  0.043641514  0.054953378   0.14209815 
  846000     -1790494     15022.78   -2305.4142    77.232592    89.181209    81.486324    1994.3934  0.067446238  0.070070419  0.077064849   0.21458151  0.044183284  0.043119478  0.053707983   0.14101074 
  847000   -1790488.3     15045.94   -3271.8668    77.232592    89.181209    81.486324    1997.4681  0.066778139  0.069209444  0.077478012    0.2134656  0.044381509  0.043395368  0.053797234   0.14157411 
  848000   -1790470.8    15044.557   -2546.5415    77.232592    89.181209    81.486324    1997.2845  0.068411458  0.071525454  0.076680911   0.21661782  0.045322221  0.044524064  0.053665235   0.14351152 
  849000   -1790487.4    15048.491   -2760.5592    77.232592    89.181209    81.486324    1997.8068  0.068251313  0.069790216  0.077752643   0.21579417   0.04483014  0.043547009  0.054375692   0.14275284 
  850000   -1790552.4    15040.933   -3191.1832    77.232592    89.181209    81.486324    1996.8035  0.066624077  0.070098016   0.07654457   0.21326666  0.044593827  0.043484115  0.053597132   0.14167507 
  851000   -1790595.2    15075.786   -2897.1998    77.232592    89.181209    81.486324    2001.4304  0.066088992  0.070527778  0.076366326    0.2129831  0.043394468  0.043224107   0.05362918   0.14024776 
  852000     -1790589     15088.05   -2902.2128    77.232592    89.181209    81.486324    2003.0586  0.067258829  0.071914981  0.077010916   0.21618473  0.045114182  0.044721821  0.053683478   0.14351948 
  853000   -1790466.6     15091.66   -2360.2405    77.232592    89.181209    81.486324    2003.5378  0.066898604  0.070970116  0.076970201   0.21483892  0.044435757  0.044295621    0.0541247   0.14285608 
  854000   -1790480.2    15067.646   -2762.0062    77.232592    89.181209    81.486324    2000.3497  0.066437471  0.070366602  0.077179868   0.21398394  0.044330983  0.042965515  0.053670517   0.14096702 
  855000   -1790356.1    15115.772   -1727.3531    77.232592    89.181209    81.486324    2006.7389  0.066822452  0.071083447  0.077846957   0.21575286  0.044218631  0.043944238  0.054209947   0.14237282 
  856000   -1790464.6    15094.476   -2266.7844    77.232592    89.181209    81.486324    2003.9116  0.066952434  0.070914457  0.077159509    0.2150264  0.044490887  0.043376079  0.053327303   0.14119427 
  857000   -1790514.4    15025.179   -3308.3758    77.232592    89.181209    81.486324    1994.7119  0.067556154  0.071539952  0.077224057   0.21632016  0.044899666  0.043987165  0.053758732   0.14264556 
  858000   -1790446.7     15027.91   -2798.4856    77.232592    89.181209    81.486324    1995.0744  0.067100715  0.071091025  0.077989394   0.21618113  0.044340498  0.043805473  0.055197662   0.14334363 
  859000   -1790504.7    15090.921   -2481.1329    77.232592    89.181209    81.486324    2003.4398  0.066919047  0.071447298  0.078083846   0.21645019  0.044762773   0.04472943  0.055708297    0.1452005 
  860000   -1790519.9    15094.045   -2881.3611    77.232592    89.181209    81.486324    2003.8545  0.067303597  0.071822849  0.077366353    0.2164928  0.045681858  0.044711161   0.05425667   0.14464969 
  861000   -1790479.9    15057.272   -2364.1732    77.232592    89.181209    81.486324    1998.9725    0.0679271  0.071510744  0.078822492   0.21826034  0.045676902  0.044169877  0.054635511   0.14448229 
  862000   -1790447.5    15097.813   -2105.3153    77.232592    89.181209    81.486324    2004.3547  0.067795374  0.071094416  0.076996959   0.21588675   0.04521025  0.043920939  0.053518448   0.14264964 
  863000   -1790461.3    15055.165   -2339.5504    77.232592    89.181209    81.486324    1998.6928  0.068115347  0.070424516  0.076591913   0.21513178  0.045813815  0.043463832   0.05470845    0.1439861 
  864000   -1790458.9    15029.264   -2825.2741    77.232592    89.181209    81.486324    1995.2542  0.068080499  0.069581129  0.077973717   0.21563535  0.044827734  0.043741961  0.054597313   0.14316701 
  865000     -1790607    15101.883    -3645.014    77.232592    89.181209    81.486324     2004.895  0.066570706  0.070379497  0.076602764   0.21355297  0.044408391  0.044090665  0.053190164   0.14168922 
  866000   -1790528.7      15095.9    -2598.775    77.232592    89.181209    81.486324    2004.1006  0.066309487    0.0705294  0.079078899   0.21591779  0.044654792  0.043193384  0.054961787   0.14280996 
  867000   -1790490.1    15083.737   -2902.7844    77.232592    89.181209    81.486324     2002.486  0.066472029  0.070905948  0.076061222    0.2134392  0.044497027  0.043942758  0.053079564   0.14151935 
  868000   -1790537.7    15091.538   -2582.9185    77.232592    89.181209    81.486324    2003.5216  0.066184216  0.070461937  0.077513114   0.21415927  0.044569196  0.043927293  0.054255994   0.14275248 
  869000   -1790536.1    15043.216   -2776.4488    77.232592    89.181209    81.486324    1997.1065   0.06860528  0.071706653  0.078785586   0.21909752  0.045658128  0.044851072  0.055195144   0.14570434 
  870000   -1790542.4    15000.659   -2736.3744    77.232592    89.181209    81.486324    1991.4567  0.066636233  0.070115641  0.076879923    0.2136318  0.045243086  0.044619487  0.053902266   0.14376484 
  871000   -1790465.6    15002.748   -2824.3131    77.232592    89.181209    81.486324     1991.734  0.066550947  0.070749066  0.078506472   0.21580648  0.044357428   0.04387125  0.055340516   0.14356919 
  872000   -1790389.7    15092.448   -2092.1534    77.232592    89.181209    81.486324    2003.6424   0.06739963  0.071376309  0.078249287   0.21702523  0.045788423  0.045550817  0.054513835   0.14585307 
  873000   -1790401.3    15042.345   -2498.3346    77.232592    89.181209    81.486324    1996.9908   0.06699789  0.069997454  0.077020747   0.21401609  0.045098027  0.043379332  0.053269309   0.14174667 
  874000   -1790525.9    15114.503   -2868.7094    77.232592    89.181209    81.486324    2006.5704   0.06719757  0.071970896  0.077397207   0.21656567  0.044945823  0.044092342  0.053806311   0.14284448 
  875000   -1790512.1    15020.182   -3140.6984    77.232592    89.181209    81.486324    1994.0486   0.06689519  0.070498542  0.077523626   0.21491736  0.044805434   0.04442021  0.054304147   0.14352979 
  876000   -1790456.9    15011.577   -2454.6303    77.232592    89.181209    81.486324    1992.9061  0.067934219  0.071411121  0.078682415   0.21802775  0.044890708  0.044265403  0.055699962   0.14485607 
  877000   -1790453.1    15025.641   -1786.1555    77.232592    89.181209    81.486324    1994.7733  0.067113192  0.070692352  0.077818554    0.2156241  0.045797794  0.044601168  0.054317814   0.14471678 
  878000   -1790524.9    15075.129   -3275.3412    77.232592    89.181209    81.486324    2001.3432  0.066779665   0.07011087  0.077304174   0.21419471  0.044238864  0.043957467  0.054044528   0.14224086 
  879000   -1790582.6    15118.425   -3183.9524    77.232592    89.181209    81.486324    2007.0911  0.066688274  0.069355244   0.07771937   0.21376289   0.04409045  0.044208645  0.054426037   0.14272513 
  880000     -1790426    15073.392   -2217.0075    77.232592    89.181209    81.486324    2001.1126  0.067581682  0.070356338  0.078089889   0.21602791  0.044630094  0.044424257  0.054523214   0.14357757 
  881000   -1790460.3    15013.415   -2181.9438    77.232592    89.181209    81.486324    1993.1502  0.068389571  0.071222951  0.079868973    0.2194815  0.046473583   0.04510698  0.055246842   0.14682741 
  882000   -1790535.3    15029.516   -2856.9299    77.232592    89.181209    81.486324    1995.2877  0.067251698  0.069643877   0.07704769   0.21394327  0.044809885  0.043202685  0.053941697   0.14195427 
  883000   -1790512.8    15100.686   -2600.5859    77.232592    89.181209    81.486324    2004.7361  0.066662657  0.070850798   0.07880016   0.21631362  0.044234336   0.04424342  0.054319382   0.14279714 
  884000   -1790507.6    15147.067   -2540.0032    77.232592    89.181209    81.486324    2010.8936  0.067673705   0.06971006  0.077659049   0.21504281  0.045405862  0.044307418  0.055053831   0.14476711 
  885000   -1790486.9    15166.879   -1932.1669    77.232592    89.181209    81.486324    2013.5238  0.069086261  0.070693984  0.077645525   0.21742577  0.046389401  0.043929336  0.053339767    0.1436585 
  886000   -1790540.3    15033.897   -2794.1997    77.232592    89.181209    81.486324    1995.8693  0.067128861  0.070509861    0.0793882   0.21702692  0.045617445  0.043947245   0.05581462   0.14537931 
  887000   -1790497.5    15041.123   -2707.5464    77.232592    89.181209    81.486324    1996.8286  0.067920669  0.070401909  0.077758858   0.21608144  0.045627417  0.044532382  0.053825963   0.14398576 
  888000   -1790451.9    15097.516   -2734.5072    77.232592    89.181209    81.486324    2004.3152  0.067865608  0.071978219  0.077607439   0.21745127  0.045879536  0.046167516  0.055459581   0.14750663 
  889000   -1790500.1    15059.656   -2431.1065    77.232592    89.181209    81.486324    1999.2891  0.067957875  0.069095173  0.078768692   0.21582174  0.046217642  0.043238523  0.055476537    0.1449327 
  890000   -1790572.5    15091.418   -2970.2066    77.232592    89.181209    81.486324    2003.5057  0.066212015  0.071985508  0.076746534   0.21494406  0.043623446  0.046201113  0.053401006   0.14322557 
  891000   -1790505.8    15068.859   -3250.2542    77.232592    89.181209    81.486324    2000.5108  0.066516845  0.069824418  0.078765107   0.21510637  0.045328615  0.044773678  0.054529221   0.14463151 
  892000   -1790499.8    15013.135   -2929.9037    77.232592    89.181209    81.486324     1993.113    0.0669829   0.07067456  0.078182575   0.21584003  0.044987001  0.043996805  0.054868637   0.14385244 
  893000   -1790475.9    15042.656   -2902.1901    77.232592    89.181209    81.486324    1997.0321  0.067259152  0.071205761  0.078612989    0.2170779  0.045538101  0.045311409  0.054228264   0.14507777 
  894000   -1790535.6    15021.849    -2595.674    77.232592    89.181209    81.486324    1994.2699  0.067582814   0.07042771  0.078934443   0.21694497  0.046075764  0.044753546  0.055647385    0.1464767 
  895000     -1790505    15107.133   -2907.5257    77.232592    89.181209    81.486324    2005.5919  0.067323149  0.072487573  0.076504411   0.21631513  0.045560598   0.04601225  0.053883522   0.14545637 
  896000   -1790498.9    15038.575   -2889.5648    77.232592    89.181209    81.486324    1996.4903  0.066348334  0.070774445   0.07738296   0.21450574  0.044669008  0.044129002  0.052924599   0.14172261 
  897000   -1790476.9     15017.89   -2721.2089    77.232592    89.181209    81.486324    1993.7442  0.068603197  0.071362477  0.079338003   0.21930368  0.046436071  0.045896605  0.056526873   0.14885955 
  898000   -1790455.6    14966.175   -2455.8653    77.232592    89.181209    81.486324    1986.8786  0.067418609  0.071673595  0.077199277   0.21629148  0.044992895  0.045595883  0.054331569   0.14492035 
  899000   -1790514.6    15155.164   -3518.0497    77.232592    89.181209    81.486324    2011.9685  0.068677101  0.069709673  0.077145345   0.21553212  0.046064526  0.044124577  0.053912309   0.14410141 
  900000   -1790430.8    15102.421   -2342.0638    77.232592    89.181209    81.486324    2004.9664  0.067747252  0.070742521  0.076990557   0.21548033  0.045628716  0.044975588  0.054264116   0.14486842 
  901000   -1790356.8    15008.608      -1527.1    77.232592    89.181209    81.486324    1992.5121  0.067522602  0.070769794  0.077616397   0.21590879  0.045914773  0.043962816  0.054547336   0.14442492 
  902000   -1790537.2    15142.039   -3486.5239    77.232592    89.181209    81.486324     2010.226  0.069848614  0.072231863  0.078924498   0.22100498  0.046191711  0.046068659  0.055008061   0.14726843 
  903000   -1790500.9    15143.064   -2730.6048    77.232592    89.181209    81.486324    2010.3622  0.067793446  0.070119551  0.077078564   0.21499156  0.044320136  0.044876908  0.052351199   0.14154824 
  904000   -1790484.4    15087.732   -2726.6439    77.232592    89.181209    81.486324    2003.0163  0.067356288  0.071925575  0.079439341    0.2187212   0.04474191  0.045600451  0.054671032   0.14501339 
  905000   -1790461.8    15071.863   -2098.0019    77.232592    89.181209    81.486324    2000.9096  0.069513389  0.070743263  0.078770367   0.21902702  0.045881058  0.044064354  0.055630419   0.14557583 
  906000   -1790489.1    15137.621   -2720.8283    77.232592    89.181209    81.486324    2009.6395  0.070106922    0.0707344  0.077702435   0.21854376  0.046431972  0.044690972  0.054549664   0.14567261 
  907000   -1790476.2    15073.601   -3060.6364    77.232592    89.181209    81.486324    2001.1403  0.068903687  0.071501313  0.078430943   0.21883594   0.04587937  0.044979788  0.056258396   0.14711755 
  908000   -1790539.4    15010.852   -2816.4395    77.232592    89.181209    81.486324    1992.8099  0.067383612  0.070215308  0.078201082       0.2158  0.044342235  0.043810779  0.052910306   0.14106332 
  909000   -1790403.6    14979.222   -2473.9939    77.232592    89.181209    81.486324    1988.6108  0.067449761  0.071691318  0.079305144   0.21844622  0.044888362  0.044906022  0.055298287   0.14509267 
  910000   -1790484.6    15030.273   -2966.3287    77.232592    89.181209    81.486324    1995.3882  0.068656131  0.070611972  0.079436841   0.21870494    0.0452628   0.04453599   0.05544937   0.14524816 
  911000   -1790511.1    15070.815   -2546.4261    77.232592    89.181209    81.486324    2000.7704  0.068071095  0.070839024   0.07929213   0.21820225  0.046136967  0.045382021  0.054838789   0.14635778 
  912000     -1790503    15103.766   -2759.1944    77.232592    89.181209    81.486324     2005.145  0.068394201  0.070987921  0.079119236   0.21850136  0.045586536  0.044343374   0.05421052   0.14414043 
  913000   -1790464.7    15222.735   -2484.0009    77.232592    89.181209    81.486324    2020.9391   0.06871748  0.071469921  0.078599429   0.21878683  0.045759261   0.04547921  0.054406729    0.1456452 
  914000   -1790528.6     15041.32   -2653.3395    77.232592    89.181209    81.486324    1996.8548  0.066721958  0.070249782  0.078016594   0.21498833  0.044849108  0.044579518  0.054490387   0.14391901 
  915000   -1790522.4    15087.489   -2579.7606    77.232592    89.181209    81.486324    2002.9841  0.068677386  0.070485824  0.078816331   0.21797954  0.046191138  0.045227353  0.055100143   0.14651863 
  916000     -1790508    15053.609   -2360.3271    77.232592    89.181209    81.486324    1998.4863  0.067530199  0.072083179  0.078215917   0.21782929  0.044857766  0.045325354   0.05398903   0.14417215 
  917000     -1790502    15090.928   -2505.3698    77.232592    89.181209    81.486324    2003.4406  0.067803099  0.070190233  0.078516306   0.21650964  0.044963504  0.043769375  0.054687709   0.14342059 
  918000   -1790570.7    15034.997   -3663.3372    77.232592    89.181209    81.486324    1996.0154  0.067405639  0.071096745  0.076941152   0.21544354   0.04553961   0.04569923  0.052605201   0.14384404 
  919000   -1790539.1    15156.182   -2973.3751    77.232592    89.181209    81.486324    2012.1036  0.067812253  0.070011281  0.078791985   0.21661552  0.045495056  0.044832366  0.054200828   0.14452825 
  920000   -1790486.4    15087.412   -2792.1245    77.232592    89.181209    81.486324    2002.9738  0.067027756  0.071103542  0.077740835   0.21587213  0.045153625  0.045047716  0.053544326   0.14374567 
  921000   -1790508.6    15066.459   -2945.5906    77.232592    89.181209    81.486324    2000.1922  0.066687585  0.071859238  0.077499871   0.21604669  0.045162252  0.045794751  0.054457124   0.14541413 
  922000   -1790476.3    15015.331   -2712.7444    77.232592    89.181209    81.486324    1993.4046  0.067544972  0.071144045  0.080496531   0.21918555  0.044718936  0.044362771  0.055954402   0.14503611 
  923000   -1790506.2    15039.409   -2515.6391    77.232592    89.181209    81.486324     1996.601  0.068032337  0.071317239  0.077830859   0.21718044  0.045716792  0.045252613  0.052990302   0.14395971 
  924000   -1790516.1    15115.045   -2618.6039    77.232592    89.181209    81.486324    2006.6423  0.068111316  0.071091289  0.078691913   0.21789452  0.045595561  0.045592255  0.055613651   0.14680147 
  925000   -1790533.5    14966.574   -2780.2832    77.232592    89.181209    81.486324    1986.9317  0.067734549  0.070112853   0.07773995   0.21558735  0.045066134  0.045360938  0.054408633    0.1448357 
  926000     -1790488    15059.383   -2957.2033    77.232592    89.181209    81.486324    1999.2528  0.067860943  0.070767348  0.078213717   0.21684201  0.045026332  0.045964502  0.053869412   0.14486025 
  927000   -1790519.5     15062.03   -2562.2709    77.232592    89.181209    81.486324    1999.6042  0.069240509  0.070522612  0.081319059   0.22108218  0.045984963   0.04532794   0.05742876   0.14874166 
  928000   -1790425.8     15089.74   -2011.9939    77.232592    89.181209    81.486324    2003.2829  0.068691597  0.071055108  0.078496955   0.21824366  0.045841079  0.045550319   0.05554559   0.14693699 
  929000   -1790485.3    15047.362   -2131.8839    77.232592    89.181209    81.486324    1997.6569  0.068532513   0.07020829  0.078857151   0.21759795  0.045403104  0.045095283  0.054537376   0.14503576 
  930000   -1790470.4    15118.956   -2311.4746    77.232592    89.181209    81.486324    2007.1616  0.068473377  0.072075667  0.077982526   0.21853157  0.045974129  0.045340019  0.054436678   0.14575083 
  931000     -1790491    15173.108   -2346.5998    77.232592    89.181209    81.486324    2014.3507  0.068077157  0.069519808  0.077918869   0.21551583   0.04522722  0.044771469   0.05469851    0.1446972 
  932000   -1790518.7    15080.996   -2601.0357    77.232592    89.181209    81.486324    2002.1221  0.068753105  0.070484694  0.078394992   0.21763279  0.046321785  0.044995162  0.055750435   0.14706738 
  933000   -1790479.8    15000.331   -2059.7564    77.232592    89.181209    81.486324    1991.4132  0.068072105  0.071088745  0.079053478   0.21821433  0.045966946  0.046015108  0.054267649    0.1462497 
  934000   -1790508.5    15125.906   -3025.7458    77.232592    89.181209    81.486324    2008.0843  0.068034608  0.070289725  0.079324056   0.21764839   0.04553291  0.044566068  0.055535867   0.14563484 
  935000   -1790563.9    15082.202   -3019.6252    77.232592    89.181209    81.486324    2002.2822  0.067862798  0.070665447  0.079432651    0.2179609  0.046125401  0.045123001  0.055775853   0.14702426 
  936000   -1790503.8    15090.902   -3025.4188    77.232592    89.181209    81.486324    2003.4372  0.068384031  0.069932049  0.077778457   0.21609454  0.045779496  0.045093181  0.055234786   0.14610746 
  937000   -1790468.2    15013.451   -2238.8365    77.232592    89.181209    81.486324     1993.155     0.067829  0.071717344   0.07867441   0.21822075  0.045881525  0.046710724  0.055519844   0.14811209 
  938000   -1790507.7    15236.838   -2527.0108    77.232592    89.181209    81.486324    2022.8114  0.066835196  0.069647698  0.077889952   0.21437285  0.044275072  0.044742371  0.054120029   0.14313747 
  939000   -1790515.4     15083.83   -2473.3898    77.232592    89.181209    81.486324    2002.4983  0.067173875  0.070333894  0.077271591   0.21477936  0.045102983  0.045776607  0.053241972   0.14412156 
  940000   -1790519.3    15088.599   -2817.8482    77.232592    89.181209    81.486324    2003.1314  0.068292178  0.070760581  0.077523827   0.21657659  0.046029395  0.045416078  0.053933636   0.14537911 
  941000   -1790477.3    15093.714   -2531.3766    77.232592    89.181209    81.486324    2003.8105  0.068108956  0.070686752  0.079930539   0.21872625  0.046021451  0.046562206  0.055391163   0.14797482 
  942000   -1790463.1    14984.093   -2745.2841    77.232592    89.181209    81.486324    1989.2575  0.067541782   0.07168586  0.077883116   0.21711076  0.045583043  0.046284641  0.054758301   0.14662599 
  943000   -1790477.1     15126.72   -2533.3804    77.232592    89.181209    81.486324    2008.1923  0.068587914  0.070883958  0.077985681   0.21745755  0.045068447  0.046102714  0.054843381   0.14601454 
  944000   -1790472.3    15064.734   -2658.7552    77.232592    89.181209    81.486324    1999.9632  0.067786386  0.071253851  0.079012474   0.21805271  0.045253982  0.046902423  0.054755969   0.14691237 
  945000   -1790426.4    14997.839   -2917.1073    77.232592    89.181209    81.486324    1991.0824  0.069075635  0.071160859  0.078284441   0.21852094  0.046654852  0.045803977  0.054174265   0.14663309 
  946000   -1790537.9    15021.909   -3627.3226    77.232592    89.181209    81.486324    1994.2778  0.069037249  0.071746789  0.078111253   0.21889529  0.045709369  0.046288247  0.054505019   0.14650264 
  947000   -1790545.8    15032.796   -2819.2738    77.232592    89.181209    81.486324    1995.7231  0.068432468  0.071295389  0.077742235   0.21747009  0.045144223  0.046479912  0.053553758   0.14517789 
  948000   -1790486.2    15138.778   -2285.9591    77.232592    89.181209    81.486324    2009.7931  0.068723259  0.071471852  0.077620552   0.21781566  0.045940722  0.045503664  0.053021822   0.14446621 
  949000   -1790531.5    14999.192   -2893.6985    77.232592    89.181209    81.486324     1991.262  0.068797011  0.072369153  0.079931949   0.22109811  0.045903601  0.047588892  0.054885808    0.1483783 
  950000   -1790541.1    15110.519   -2613.0503    77.232592    89.181209    81.486324    2006.0414  0.067340519  0.069951064  0.077525319    0.2148169  0.044775828  0.045963925  0.054124281   0.14486403 
  951000   -1790383.2    15049.662   -2711.7152    77.232592    89.181209    81.486324    1997.9623    0.0691529  0.070969884  0.079192012    0.2193148  0.045497593  0.045986098  0.053939252   0.14542294 
  952000   -1790504.2    15009.638   -2812.6973    77.232592    89.181209    81.486324    1992.6488  0.067961215  0.071697981  0.080336662   0.21999586   0.04524105  0.046825872  0.055737842   0.14780476 
  953000   -1790507.1    14995.075   -2675.6516    77.232592    89.181209    81.486324    1990.7153   0.06890774  0.071893699  0.078590285   0.21939172  0.045917503  0.047022151  0.054855622   0.14779528 
  954000   -1790536.7    15055.129    -2982.301    77.232592    89.181209    81.486324    1998.6881  0.068870687  0.071475253   0.07897551   0.21932145  0.046088629  0.046257917  0.053933136   0.14627968 
  955000   -1790477.7    15018.466    -2895.609    77.232592    89.181209    81.486324    1993.8207  0.067986044  0.071673997  0.079807031   0.21946707  0.044769419  0.046536403  0.056396491   0.14770231 
  956000   -1790580.6    14963.893   -3691.0308    77.232592    89.181209    81.486324    1986.5757  0.068185214  0.071039561   0.07948821   0.21871299  0.045051632  0.045715294  0.053979745   0.14474667 
  957000   -1790531.2    15062.426   -2798.7569    77.232592    89.181209    81.486324    1999.6568  0.069676619  0.069956263  0.079818927   0.21945181  0.047028991  0.046469294  0.056058949   0.14955723 
  958000   -1790532.4    15058.667   -3213.8389    77.232592    89.181209    81.486324    1999.1577  0.068844795  0.070518941  0.079199528   0.21856326  0.045987016  0.045690341  0.055007452   0.14668481 
  959000   -1790499.8    15060.976   -2545.7737    77.232592    89.181209    81.486324    1999.4643  0.067235791   0.06978737  0.079702786   0.21672595  0.044691736  0.045379684   0.05506248    0.1451339 
  960000   -1790456.7    14956.544    -3044.657    77.232592    89.181209    81.486324    1985.6001  0.068380703  0.071168541  0.079238926   0.21878817  0.045480762  0.046746152  0.055089676   0.14731659 
  961000   -1790491.2    14938.946   -3051.0369    77.232592    89.181209    81.486324    1983.2638  0.068742012  0.070993892  0.078911434   0.21864734  0.046078396  0.045808083  0.054519124    0.1464056 
  962000   -1790489.6    15028.386    -2654.044    77.232592    89.181209    81.486324    1995.1377  0.069056198  0.071183865  0.078675439    0.2189155  0.046427219  0.047191552  0.054950421   0.14856919 
  963000   -1790571.2    15064.494   -3543.2296    77.232592    89.181209    81.486324    1999.9313  0.069401283   0.07125966  0.077440879   0.21810182  0.045604539  0.046442929  0.052904246   0.14495171 
  964000   -1790467.5    15101.355   -2707.3817    77.232592    89.181209    81.486324    2004.8249  0.068576997   0.07044775  0.080356864   0.21938161  0.045500031  0.046338284  0.055485771   0.14732409 
  965000   -1790556.2    15051.489   -3151.7353    77.232592    89.181209    81.486324    1998.2048  0.068356704  0.071501904  0.078791863   0.21865047  0.045735346  0.046610699  0.054278605   0.14662465 
  966000   -1790429.8     14979.72   -2407.7526    77.232592    89.181209    81.486324    1988.6768  0.070101048  0.071703748  0.079681757   0.22148655  0.046648844  0.047123771   0.05574452   0.14951714 
  967000   -1790510.7    15066.706   -2400.4466    77.232592    89.181209    81.486324    2000.2249  0.069151699  0.070660426  0.081059964   0.22087209  0.045562613   0.04604457  0.056638646   0.14824583 
  968000   -1790567.3    15079.229   -3424.6317    77.232592    89.181209    81.486324    2001.8875   0.06921071  0.070026025  0.078951647   0.21818838  0.045761379  0.046413984  0.054219373   0.14639474 
  969000   -1790440.5    15065.168   -2398.1881    77.232592    89.181209    81.486324    2000.0208   0.06971602  0.073097229  0.079820076   0.22263332  0.046246513  0.048026359  0.055879429    0.1501523 
  970000   -1790416.7    15126.389   -1788.8998    77.232592    89.181209    81.486324    2008.1484  0.070164924  0.070775745  0.079748587   0.22068926  0.046411227  0.045819566  0.053943174   0.14617397 
  971000   -1790485.9    15012.471   -2155.1107    77.232592    89.181209    81.486324    1993.0249  0.069275956   0.07088412  0.079739738   0.21989981  0.046447878  0.046070548  0.054895747   0.14741417 
  972000     -1790439    15114.933   -2241.5527    77.232592    89.181209    81.486324    2006.6274  0.070258079  0.072319712  0.080088688   0.22266648  0.046706539  0.046096476  0.056017351   0.14882037 
  973000   -1790504.8    15072.846   -3231.3437    77.232592    89.181209    81.486324    2001.0401  0.068419519  0.070622398  0.079014342   0.21805626  0.044751595  0.046379606  0.054047176   0.14517838 
  974000   -1790532.4    15071.024   -3191.7106    77.232592    89.181209    81.486324    2000.7982  0.069232182  0.072108165  0.080707883   0.22204823  0.046475755   0.04724375  0.054971844   0.14869135 
  975000   -1790486.4    14976.808   -2609.8785    77.232592    89.181209    81.486324    1988.2902  0.070257112  0.072037688  0.079398955   0.22169375  0.047134962  0.047050952  0.055613872   0.14979979 
  976000   -1790482.3    15019.516   -2614.6057    77.232592    89.181209    81.486324    1993.9602  0.069259461  0.072611358  0.080550095   0.22242091  0.046870354  0.048021554  0.055925486   0.15081739 
  977000   -1790418.4    15123.044   -2238.9084    77.232592    89.181209    81.486324    2007.7043  0.069603663  0.071423487  0.080915616   0.22194277   0.04751714  0.046852715   0.05593984    0.1503097 
  978000   -1790553.8    14982.702   -3572.6317    77.232592    89.181209    81.486324    1989.0728  0.069732815  0.072735778  0.080634462   0.22310306   0.04670439  0.048155027  0.056027599   0.15088702 
  979000   -1790521.9    15058.323   -1989.8868    77.232592    89.181209    81.486324    1999.1121  0.069996386  0.073521856  0.081391151   0.22490939   0.04704031  0.047649541  0.055409732   0.15009958 
  980000   -1790496.2    15109.132   -2456.1675    77.232592    89.181209    81.486324    2005.8573  0.070393704  0.072099121  0.081407293   0.22390012  0.046089854  0.046514634   0.05620633   0.14881082 
  981000   -1790531.9    15091.302   -2994.9147    77.232592    89.181209    81.486324    2003.4903  0.069850405  0.072393677  0.080148403   0.22239248  0.046609769  0.047084499  0.054923869   0.14861814 
  982000   -1790406.6    15056.459   -2730.6543    77.232592    89.181209    81.486324    1998.8646  0.070252695  0.071891249  0.080835879   0.22297982  0.046814767  0.047185301  0.055851897   0.14985196 
  983000   -1790487.6    14982.014   -2793.5213    77.232592    89.181209    81.486324    1988.9814  0.071286284  0.071778611  0.079115803    0.2221807  0.047062408  0.046263147  0.053595414   0.14692097 
  984000   -1790518.9    14993.539   -3017.1824    77.232592    89.181209    81.486324    1990.5114   0.07036821  0.070962002  0.078764185    0.2200944  0.047141098  0.045966797  0.055162774   0.14827067 
  985000     -1790589    15018.838   -3448.4858    77.232592    89.181209    81.486324    1993.8701   0.06951932  0.073865429  0.079465764   0.22285051    0.0459174  0.048076288  0.054255629   0.14824932 
  986000   -1790520.8     15103.45    -3271.068    77.232592    89.181209    81.486324     2005.103  0.070485893  0.071220367  0.079994942    0.2217012  0.046894563  0.047122162  0.054135936   0.14815266 
  987000     -1790440    15032.809   -1962.6001    77.232592    89.181209    81.486324    1995.7248  0.070214143  0.071089255  0.079434294   0.22073769  0.046362484  0.047017274  0.055092858   0.14847262 
  988000   -1790532.2    15045.026   -2286.0993    77.232592    89.181209    81.486324    1997.3467  0.070862222  0.072532155  0.078845573   0.22223995  0.047170813  0.047201968   0.05445021   0.14882299 
  989000   -1790583.3      15113.7   -2129.2885    77.232592    89.181209    81.486324    2006.4638   0.06968438  0.070182459  0.079737511   0.21960435   0.04690165  0.046123923  0.055085759   0.14811133 
  990000   -1790542.8    15142.378   -3304.0636    77.232592    89.181209    81.486324    2010.2711   0.06998881  0.072559934  0.078613592   0.22116234   0.04673925  0.047521749  0.053973151   0.14823415 
  991000   -1790465.6    15121.476   -1877.7673    77.232592    89.181209    81.486324    2007.4961  0.070519205  0.070667752  0.079294089   0.22048105  0.046754781  0.046452425  0.054552945   0.14776015 
  992000   -1790460.1     15005.49   -2614.4986    77.232592    89.181209    81.486324     1992.098  0.070146141  0.072425534  0.080121433   0.22269311  0.046645309  0.047037547  0.054937929   0.14862079 
  993000   -1790475.6    15033.148   -2376.8445    77.232592    89.181209    81.486324    1995.7699  0.070507733  0.071159552  0.079884139   0.22155142   0.04580159  0.045946014  0.054894171   0.14664177 
  994000   -1790410.8    15060.792   -1948.1831    77.232592    89.181209    81.486324    1999.4399  0.070136935  0.071538689  0.079861936   0.22153756  0.045640675   0.04606854  0.055324587    0.1470338 
  995000   -1790490.8    15106.607   -2876.1571    77.232592    89.181209    81.486324    2005.5221  0.069069734  0.073323265  0.078817295   0.22121029  0.045828911  0.047986056  0.053630007   0.14744497 
  996000   -1790458.8    15038.534   -2428.9043    77.232592    89.181209    81.486324     1996.485  0.071171853  0.071626104  0.078312886   0.22111084  0.046811551  0.046188714  0.054150254   0.14715052 
  997000   -1790557.1    15072.471   -2986.9647    77.232592    89.181209    81.486324    2000.9904  0.069188246  0.073341018  0.079012937    0.2215422  0.045104891  0.047885532  0.055046279    0.1480367 
  998000   -1790482.3    15090.953   -2664.4995    77.232592    89.181209    81.486324    2003.4439  0.070212706  0.071125865  0.079012144   0.22035072  0.046097101  0.045371047  0.053968123   0.14543627 
  999000   -1790539.3    15036.554   -3432.5937    77.232592    89.181209    81.486324     1996.222  0.069363026  0.072044144   0.07927909   0.22068626  0.046345123  0.047523614  0.054915041   0.14878378 
 1000000   -1790482.7    15077.472   -3002.4904    77.232592    89.181209    81.486324    2001.6542  0.070911948  0.072187154  0.079546186   0.22264529  0.047499966   0.04751475  0.054624602   0.14963932 
Loop time of 222495 on 7 procs for 1000000 steps with 58275 atoms

Pair  time (%) = 177608 (79.8254)
Kspce time (%) = 38581.7 (17.3404)
Neigh time (%) = 4553.6 (2.04661)
Comm  time (%) = 1255.63 (0.564341)
Outpt time (%) = 0.425423 (0.000191205)
Other time (%) = 496.148 (0.222992)

Nlocal:    8325 ave 8421 max 8177 min
Histogram: 1 1 1 0 0 0 0 0 0 4
Nghost:    32330.7 ave 32724 max 32036 min
Histogram: 3 1 0 0 0 0 0 0 2 1
Neighs:    3.16332e+06 ave 3.20196e+06 max 3.10198e+06 min
Histogram: 1 1 1 0 0 0 0 0 0 4

Total # of neighbors = 22143225
Ave neighs/atom = 379.978
Neighbor list builds = 35722
Dangerous builds = 0
